2,2,2,2,2,2,2,2,2,2,2,2,2,2,2,2,2,2,2,2,2,2,2,2,2,2,2,2,2,2,2,2,2,2,2,2,2,2,2,2,2,2,2,2,2,2,2,2,2,2,2,2,2,2,2,2,2,2,2,2,2,2,2,2,2,2,2,2,2,2,2,2,2,2,2,2,2,2,2,2,2,2,2,2,2,2,2,2,2,2,2,2,2,2,2,2
1.0
  10.2763119724950212    0.0000000000000001    0.0000000000000000
   0.2486901415604678   10.4266591473823507   -0.0000000000000000
   0.3176201686272802   -0.3557858055775336   10.0073502318364511
O Zr
64 32
direct
   0.1278067235747269    0.1458317800176423    0.1254171667348228 O
   0.1760388621361984    0.3454321274543046    0.3324303877980203 O
   0.1246777129288865    0.1043878757984388    0.3804443843674024 O
   0.1815075722386750    0.4016139045154822    0.0799010454791753 O
   0.4232773368815287    0.4187323366924009    0.1830043255180369 O
   0.4335762676077179    0.3415253807785083    0.4457751845946292 O
   0.3749183936215478    0.1081829784530154    0.3736971953177782 O
   0.3757096752000392    0.1456796600026132    0.1248576715467572 O
   0.1262280925487892    0.1368733722617038    0.6353889601036916 O
   0.1842914896747451    0.3454093023918084    0.8145803565829696 O
   0.1321360126455543    0.1021899254209489    0.8847604317706768 O
   0.1802724550246037    0.4064312639881805    0.5700657591308366 O
   0.4306204744759215    0.4170806347612316    0.6925315624362034 O
   0.4364526113154119    0.3323111370907992    0.9444117383474080 O
   0.3836621986601882    0.0976827270677211    0.8716127697071040 O
   0.3791116367557855    0.1473528727333420    0.6206397549214409 O
   0.1205178511279127    0.6396987051531119    0.1358775420364665 O
   0.1878780411413287    0.8341842662102004    0.3136858740102205 O
   0.1270075003752906    0.6046487854075807    0.3927713268289097 O
   0.1715955086461665    0.9089444542287969    0.0706355581171941 O
   0.4219701003241102    0.9065075451419162    0.1775100637378224 O
   0.4315091389382024    0.8472329875292299    0.4313641462918822 O
   0.3750797426219489    0.6134105156401370    0.3689096643040657 O
   0.3690015385971987    0.6405531496383179    0.1202287749830462 O
   0.1273127252279085    0.6431035179378831    0.6375670967327721 O
   0.1680286745402488    0.8490306862988738    0.8173312871052592 O
   0.1188595912807862    0.6222017577748147    0.9004281969600265 O
   0.1753813504732009    0.9124361939270875    0.5672473852210005 O
   0.4307404807279735    0.9102027692656472    0.6784662902573392 O
   0.4314502722207368    0.8444542173262893    0.9241084272517680 O
   0.3794345192221297    0.6028370676390299    0.8719746842515236 O
   0.3745256700567650    0.6493513128124357    0.6221890531613162 O
   0.6208752689295203    0.1442177245301264    0.1323695356824650 O
   0.6753971325407210    0.3411609112965568    0.3264991688214753 O
   0.6179746173697044    0.0979572429121762    0.3844501419627018 O
   0.6754442687664648    0.4050790857391078    0.0664329797996886 O
   0.9311538161247116    0.4064461648020918    0.1877348621139678 O
   0.9279519650528389    0.3368916471944167    0.4277554497974683 O
   0.8737254509944239    0.1046397660046483    0.3669680545022837 O
   0.8757500713110234    0.1463849451117972    0.1211055391010929 O
   0.6284940101384321    0.1429305197471372    0.6351153868963415 O
   0.6845346570019097    0.3507670906132959    0.8222081093678335 O
   0.6251464803547693    0.1146114231704242    0.8882199928730612 O
   0.6680916826033659    0.4173444009097506    0.5768851411069860 O
   0.9372704983243115    0.4068955027997566    0.6792072176785072 O
   0.9374231728312353    0.3375266885494738    0.9272621183257147 O
   0.8772494701098799    0.1086579975314004    0.8722520570860596 O
   0.8701367558793085    0.1467700744942355    0.6220076209282138 O
   0.6199420677293432    0.6396345009334297    0.1252499831086639 O
   0.6778489644645226    0.8378479911902904    0.3123702528822505 O
   0.6223930994130561    0.6104718281745123    0.3822463578451200 O
   0.6802171016036362    0.9089306273672072    0.0604404918272760 O
   0.9280925383191372    0.9066902870204071    0.1768356298024007 O
   0.9359287228651153    0.8400951956584443    0.4257568455779046 O
   0.8818675731689418    0.6123436992208817    0.3682133825173213 O
   0.8658616347218412    0.6449774755800989    0.1177457182273280 O
   0.6227760864619128    0.6503223112206086    0.6323150612206349 O
   0.6785588449206386    0.8409495515648716    0.8136760451728212 O
   0.6263777745650773    0.6075162409721010    0.8842294337865054 O
   0.6868554746876140    0.9104220827817050    0.5716682521513149 O
   0.9266576096080402    0.9083249755924286    0.6736892082233843 O
   0.9201386377660978    0.8606471115457430    0.9169945741287385 O
   0.8783862711374242    0.6024607189732186    0.8696502619557994 O
   0.8747698189640919    0.6425582604056642    0.6180826054256044 O
   0.4978288389988493    0.0176361109401285    0.0180043488461916 Zr
   0.2523729632633419    0.0095706335154861    0.2358011035721453 Zr
   0.2487438830298966    0.2364686338041539    0.4887784220081585 Zr
   0.4966447805594074    0.2502543218731630    0.2734962609675486 Zr
   0.4995279493777848    0.0040053955675710    0.5132166780434048 Zr
   0.2551233154128211    0.0054278181322351    0.7361322913196502 Zr
   0.2552040876746924    0.2413571143644034    0.9790434458395122 Zr
   0.4999965410934415    0.2416594267049046    0.7619564615957989 Zr
   0.5010435133844642    0.5080101047278114    0.0106431399553860 Zr
   0.2391142551734064    0.5029851529128428    0.2302241998756552 Zr
   0.2535314821901728    0.7446635004626924    0.4888278171715683 Zr
   0.4966860431210198    0.7357823029460615    0.2589778831818100 Zr
   0.4962698120549998    0.5139584849720469    0.5115533909879516 Zr
   0.2543997758700750    0.5137588996689997    0.7443147897735864 Zr
   0.2529164807801108    0.7506760886140550    0.9835840010561613 Zr
   0.4991411023153808    0.7397955961665373    0.7612202837136096 Zr
   0.0054513617471044    0.0111651782601678    0.0121535869917966 Zr
   0.7494456697155653    0.9998555576784751    0.2272177443901377 Zr
   0.7471719836398071    0.2321529661167554    0.4866800775599752 Zr
   0.0023425146717319    0.2394350254884322    0.2657944154325736 Zr
   0.9987560820985106    0.0042772582356852    0.5173060274567799 Zr
   0.7531222591854875    0.0079747033969574    0.7406975441130079 Zr
   0.7528102968267394    0.2365208763942030    0.9920096756799750 Zr
   0.0005005463343996    0.2443432613069487    0.7588360172747182 Zr
   0.9966393647482014    0.5039660786486840    0.0153655073558650 Zr
   0.7490863200063507    0.5088012800142742    0.2247793332588504 Zr
   0.7528749874582884    0.7399991429576462    0.4814356413022098 Zr
   0.0045206658686586    0.7435275863052540    0.2704394604068285 Zr
   0.9935708821038755    0.5045043165466784    0.5136013903609323 Zr
   0.7458215672399804    0.5138478029427068    0.7357238313372069 Zr
   0.7509803862267663    0.7457973795159424    0.9784165072539073 Zr
   0.9946583075796638    0.7376530716121547    0.7670156660032686 Zr
