2,2,2,2,2,2,2,2,2,2,2,2,2,2,2,2,2,2,2,2,2,2,2,2,2,2,2,2,2,2,2,2,2,2,2,2,2,2,2,2,2,2,2,2,2,2,2,2,2,2,2,2,2,2,2,2,2,2,2,2,2,2,2,2,2,2,2,2,2,2,2,2,2,2,2,2,2,2,2,2,2,2,2,2,2,2,2,2,2,2,2,2,2,2,2,2
1.0
  10.5637768475532159   -0.0000000000000000    0.0000000000000000
  -0.4295370026989370   10.2864018647988509   -0.0000000000000000
   0.2986171990194540   -0.3230382084759976   10.8458914881390101
O Zr
64 32
direct
   0.1327283394543051    0.1350594218071000    0.1189122813565319 O
   0.1944656132934721    0.3316042212230968    0.3110272188495607 O
   0.1301402657069312    0.1165810567622753    0.3880955499696081 O
   0.1900072116902868    0.4088747784676322    0.0630120266413678 O
   0.4442338400615565    0.4215675267139831    0.1872168314536962 O
   0.4328398748571438    0.3456271022144306    0.4286509629830084 O
   0.3836193804746494    0.1055074498878471    0.3581323055322657 O
   0.3710467163945387    0.1442415555633297    0.1168721260752257 O
   0.1288785904099763    0.1543014830457198    0.6278676828960655 O
   0.1665091424135473    0.3510645301041964    0.8203191798230507 O
   0.1118566547156860    0.1080073524032691    0.8827944447140021 O
   0.1874348922902346    0.4201272087462673    0.5503691985511678 O
   0.4283571853421326    0.4241431296168353    0.7033836808475197 O
   0.4449933600278896    0.3269343683591446    0.9415685011110367 O
   0.3701751428944351    0.1015837954931801    0.8644793713779619 O
   0.3744491694571592    0.1455057062248202    0.6321512526746131 O
   0.1265556244819279    0.6428097622344596    0.1353271173886548 O
   0.1744086084527232    0.8365655142769893    0.3227160417866739 O
   0.1219367703839211    0.5973286573901218    0.3723141263782709 O
   0.1979333196438634    0.9147326582947544    0.0674445901565546 O
   0.4376751450881144    0.9205515883145523    0.1848325535980419 O
   0.4145726519593285    0.8435808754652763    0.4347988451808820 O
   0.3593195953058734    0.6299173676526167    0.3641752492563178 O
   0.3682978039271301    0.6419053149798188    0.1230001550595360 O
   0.1264617701915201    0.6463271783519949    0.6262936057149808 O
   0.2099703272910029    0.8353031097088341    0.8102829015679123 O
   0.1177950896738288    0.6086921748335263    0.8728508148502937 O
   0.1667313344055596    0.9178007971771905    0.5654321244506811 O
   0.4310804747178069    0.9153223813136417    0.6854760713335943 O
   0.4370200799481996    0.8310492169612774    0.9407535734668070 O
   0.3622048088330811    0.5943900672005582    0.8776685309372695 O
   0.3767257500045316    0.6399065678395793    0.6211856543805436 O
   0.6294230134921981    0.1404438465222574    0.1273527384273141 O
   0.6719428929966280    0.3495890109164197    0.3164197330899955 O
   0.6333122421739015    0.1095755054385067    0.3721524643976105 O
   0.6829939854833617    0.3990064438735434    0.0585785177451572 O
   0.9258951212839922    0.4196396701512811    0.1954058143323401 O
   0.9408218328648112    0.3502968187181972    0.4194154314907799 O
   0.8785281880505620    0.1128905133253631    0.3623336262305072 O
   0.8806382103613721    0.1472046117832831    0.1191854995611617 O
   0.6270593661163015    0.1427628618037355    0.6394685844021886 O
   0.6778874852958764    0.3381269613935527    0.8287766539458846 O
   0.6233652844179781    0.0956583664937747    0.8814283537185128 O
   0.6812288962171480    0.3896305263432628    0.5777865031521954 O
   0.9334090688130775    0.4079426665945500    0.6788848004197945 O
   0.9340861022332451    0.3386804223489313    0.9340119852829347 O
   0.8650437889148618    0.0968709212822225    0.8723998630124158 O
   0.8847841946850822    0.1487695945770249    0.6152722293135366 O
   0.6360354316555690    0.6466300847483010    0.1147241961401460 O
   0.6849336856129975    0.8494185354565100    0.3193391026443219 O
   0.6171365270305674    0.6103664993214486    0.3764180717338626 O
   0.6984495246311092    0.9137672569949716    0.0641388390028381 O
   0.9378190934741929    0.9212269756088302    0.1888684307454271 O
   0.9076074265674200    0.8558489524055757    0.4362746016198528 O
   0.8682126198203948    0.6120918362768134    0.3748250867202383 O
   0.8784133959217112    0.6437545236113184    0.1152621240187700 O
   0.6253929371235079    0.6413163286365797    0.6276786045522297 O
   0.6759859419406546    0.8387734451032728    0.8093327829159537 O
   0.6265989633224659    0.6065008488008626    0.8777337629655239 O
   0.6963366552020402    0.9217027135118663    0.5598798390192939 O
   0.9283570500438160    0.9161776741399322    0.6957212811461320 O
   0.9391125115098473    0.8182296220098295    0.9399991508996121 O
   0.8713446862639180    0.5962048694479832    0.8606344633456804 O
   0.8707489736191042    0.6413094473527716    0.6258558893589586 O
   0.5097641934622990    0.0074929292160871    0.0259803721075536 Zr
   0.2507355490148192    0.0121404088737074    0.2369519978427301 Zr
   0.2520326398529256    0.2498261764900509    0.4868256410433603 Zr
   0.5000698357116873    0.2459075983248079    0.2607872132957622 Zr
   0.4928452041843721    0.0094919404730500    0.5192497400659795 Zr
   0.2385187832113689    0.0113562988809547    0.7343688937152231 Zr
   0.2621298749900510    0.2336786869739621    0.9807086627532808 Zr
   0.4966148774799177    0.2452104719053180    0.7623751773418095 Zr
   0.5061688728349827    0.5007256163732127    0.0090295935200071 Zr
   0.2524674580982819    0.5056558028034960    0.2321342817557545 Zr
   0.2410979407144674    0.7374741381207930    0.4817848125176658 Zr
   0.4926510281763845    0.7433521277383095    0.2632338870089392 Zr
   0.5018097157879781    0.5171904269929805    0.5151656479331712 Zr
   0.2498138369533412    0.5033336157775269    0.7335813824249487 Zr
   0.2454134065721266    0.7245020520057871    0.9867780774502644 Zr
   0.4931096941354354    0.7483038781912941    0.7785234129102304 Zr
   0.9961699036422750    0.0003998503243280    0.0209000262032766 Zr
   0.7505356450418552    0.0216415669819959    0.2381602084277549 Zr
   0.7481581437687896    0.2374588090571864    0.4744967879245336 Zr
   0.0108270907924521    0.2347828633222371    0.2629408155815258 Zr
   0.9915786988739979    0.0149853435152356    0.5188498393750364 Zr
   0.7503977144337435    0.0096075630527031    0.7411728777566181 Zr
   0.7556436892464820    0.2350098015089763    0.9800941581542547 Zr
   0.0033625096308633    0.2401996212385219    0.7681203226780083 Zr
   0.0100040650045965    0.5069515733213228    0.0150785877563727 Zr
   0.7477367663749632    0.5183013899076904    0.2307842624128528 Zr
   0.7400663318395746    0.7439439043367169    0.4831594120437909 Zr
   0.9997913154535961    0.7392663717887433    0.2703318878679916 Zr
   0.9924841954977461    0.5014677432905265    0.5189141260130470 Zr
   0.7515330246402775    0.5080790303122413    0.7266043917107456 Zr
   0.7484550947544939    0.7362372908090410    0.9843295129473794 Zr
   0.9933506185334918    0.7424642811414495    0.7612104547633276 Zr
