0,0,0,0,0,0,0,0,0,0,0,0,0,0,0,0,0,0,0,0,0,0,0,0,0,0,0,0,0,0,0,0,0,0,0,0,0,0,0,0,0,0,0,0,0,0,0,0,0,0,0,0,0,0,0,0,0,0,0,0,0,0,0,0,0,0,0,0,0,0,0,0,0,0,0,0,0,0,0,0,0,0,0,0,0,0,0,0,0,0,0,0,0,0,0,0
1.0
  10.8979560628772596   -0.0000000000000000   -0.0000000000000001
  -0.1375186425235335   10.8937115184903259    0.0000000000000000
  -1.4659600886956257    0.0873496590353420   10.1334998803652052
O Zr
64 32
direct
   0.0359331672181178    0.1945763632111234    0.1631185412557017 O
   0.4603521276896350    0.4317840788281525    0.0891098769586660 O
   0.4630146793739257    0.3301513146943802    0.3465190580407299 O
   0.0345508563017483    0.0765694790173254    0.4281854820867304 O
   0.2453930323184804    0.3898382269924739    0.2415115559375522 O
   0.2729151124529634    0.1228749292749856    0.0038357049942156 O
   0.2514076999683349    0.1268287870350563    0.2533254421874513 O
   0.2099961158619960    0.3816588143826635    0.4830403162666827 O
   0.0320543237673302    0.1510117286608053    0.6844252515795208 O
   0.4376451059924917    0.4291108073908355    0.5740592037970549 O
   0.4673887703886572    0.3329186351277182    0.8363874581300679 O
   0.0449371608079421    0.0786729465451391    0.9187753336870281 O
   0.2164665794032879    0.4020949960322322    0.7497906439434597 O
   0.2857914686839706    0.1380823668043110    0.4939375347305586 O
   0.2735252167271547    0.1086887308447478    0.7429109201241423 O
   0.2459052526907871    0.3583527133876055    0.9968684508768099 O
   0.0298309649878212    0.6550402435154148    0.1697068552427932 O
   0.4505281003268886    0.9338736644050832    0.0824319709440699 O
   0.4860785094977736    0.8412477540452513    0.3293070170026721 O
   0.0304582243560870    0.6026967527686450    0.4185255765303421 O
   0.2297673217301469    0.8920845608898903    0.2296712636084940 O
   0.2851205780112900    0.6313028471353613    0.0296479383477500 O
   0.2859124886339863    0.6467116825042976    0.2775322620419909 O
   0.2030893788501850    0.9002953231611028    0.4476392096860142 O
   0.0204002728291656    0.6368593377660936    0.6878570973594161 O
   0.4266933837334930    0.9440623055506103    0.5847904412553693 O
   0.4608832504097622    0.8229537994936571    0.8460794282055103 O
   0.0239687914633423    0.5989100932281969    0.9347510048876246 O
   0.2191976460370773    0.8782099591319009    0.7210165173788585 O
   0.2561173074076916    0.6447138538439613    0.5231058661747336 O
   0.2746272550876613    0.6251944123941661    0.7630314009458830 O
   0.2302907293857636    0.8848807878566485    0.9717355324866414 O
   0.5442265123414652    0.1772029488308151    0.1776635694138002 O
   0.9536471303146812    0.4203481010192923    0.0753842856780563 O
   0.9785942346775168    0.3442995135364078    0.3419809866199068 O
   0.5298023524575058    0.0904992751883050    0.4185727302191605 O
   0.7250310212529976    0.3878964477363054    0.2349798263691482 O
   0.7751649089112282    0.1495762939957087    0.0241167158420288 O
   0.7751708431087740    0.1260887449415778    0.2794863110807014 O
   0.7249701579648867    0.3756434786459325    0.4965375893623302 O
   0.5288020449946343    0.1780702895593763    0.6591593597728717 O
   0.9690958267518016    0.4111512492750947    0.5491054694421592 O
   0.9694982207395482    0.3423757840875565    0.8268143153713683 O
   0.5475708068949684    0.0921111229621830    0.9107092229587517 O
   0.7059111009624244    0.3950261215588921    0.7438530509094299 O
   0.7575337768150162    0.1283164711387528    0.5324253220601564 O
   0.7650776230232694    0.1185467755184860    0.7707410297634031 O
   0.7359925999297877    0.3749414361540122    0.9750551524794517 O
   0.5393686194484626    0.6774581039985414    0.1707385780457172 O
   0.9640432958199097    0.8999732766038069    0.0856533226375011 O
   0.9560739006993568    0.8371361979716082    0.3264447878377811 O
   0.5438757199941089    0.5868661219058552    0.4332761947831360 O
   0.7195422047817079    0.8945374346880962    0.2424970681216842 O
   0.7615588576448722    0.6300783102164853    0.0098247898530011 O
   0.7814673683601407    0.6281279810590054    0.2654486566691563 O
   0.6958378226463570    0.8829114589014850    0.4773979053647210 O
   0.5374352593868941    0.6680560544537580    0.6675828955016671 O
   0.9747373058779009    0.8801108888157225    0.5432027701471310 O
   0.9750260091036584    0.8501520089061168    0.8108216688412181 O
   0.5367799791388935    0.5736774128150367    0.9176144097674656 O
   0.7282168236660763    0.8977113507695462    0.7363037446575762 O
   0.7683239444414021    0.6227814381808908    0.5125783326611935 O
   0.7980478559779700    0.6249569149338265    0.7624231183117712 O
   0.7066535404310088    0.8603406500505857    0.0034214880948664 O
   0.1486182824267823    0.0141603898091989    0.0929317780843612 Zr
   0.3680235607442984    0.2680400283042615    0.1558663032661009 Zr
   0.3755117280258914    0.4761400549224598    0.3979005511918637 Zr
   0.1295362486271280    0.2216225742360950    0.3653758198856922 Zr
   0.1380877205225490    0.0138400722285311    0.5976143596186383 Zr
   0.3589661195827562    0.2673607855608288    0.6416153567434274 Zr
   0.3675741758086569    0.4778614365356973    0.8996846895182902 Zr
   0.1333107684587904    0.2299045857568004    0.8560467758339153 Zr
   0.1333132352433863    0.5072265727865237    0.1081458228389010 Zr
   0.3649666861691645    0.7661653062400405    0.1562341020665155 Zr
   0.3515651934774288    0.9831363380793484    0.3715322060441288 Zr
   0.1419040713194177    0.7443354894664767    0.3524491064750754 Zr
   0.1303401634528348    0.5144445956708570    0.6060463830072763 Zr
   0.3556623648628444    0.7667732997413802    0.6599317372626238 Zr
   0.3814766654222662    0.9844758237597496    0.8891684729042767 Zr
   0.1534907395915168    0.7216221821453321    0.8645693343200844 Zr
   0.6248628941043741    0.0154193923594916    0.1063483240561464 Zr
   0.8647366075351831    0.2766507363094892    0.1602336783114939 Zr
   0.8661923215076220    0.4902312543727473    0.3885631768969928 Zr
   0.6447207943397494    0.2251622364194179    0.3699836787647823 Zr
   0.6207140021537146    0.0165506402734927    0.5975785228096101 Zr
   0.8685437188425926    0.2682547260083894    0.6594045589764375 Zr
   0.8715279114124762    0.4887910697563180    0.8838816008331766 Zr
   0.6419748941253733    0.2359978206512246    0.8572020413135828 Zr
   0.6446733553735429    0.5109153833789379    0.1055438820572083 Zr
   0.8590275824798617    0.7634958347585753    0.1343463008410216 Zr
   0.8604866037370383    0.9742539329792325    0.3897759698851106 Zr
   0.6393264045906466    0.7340090998011468    0.3500338943184718 Zr
   0.6331719367023851    0.5140607997671208    0.5877196286684480 Zr
   0.8694493499328461    0.7636516330967108    0.6412485010130392 Zr
   0.8464736154737410    0.9823953459887098    0.9022790857101667 Zr
   0.6357465598499373    0.7270608740347076    0.8499677217334302 Zr
