1,1,1,1,1,1,1,1,1,1,1,1,1,1,1,1,1,1,1,1,1,1,1,1,1,1,1,1,1,1,1,1,1,1,1,1,1,1,1,1,1,1,1,1,1,1,1,1,1,1,1,1,1,1,1,1,1,1,1,1,1,1,1,1,1,1,1,1,1,1,1,1,1,1,1,1,1,1,1,1,1,1,1,1,1,1,1,1,1,1,1,1,1,1,1,1
1.0
  10.1233137662665751    0.0000000000000000    0.0000000000000000
  -0.0344285579506421    9.9631608416991551    0.0000000000000000
  -0.4837056768283263    0.1497934471671203   10.0860968994210083
O Zr
64 32
direct
   0.1472452674100453    0.0891839348432916    0.1036807741218538 O
   0.4071443430384078    0.0859590296761733    0.1724741951566875 O
   0.3820843919548546    0.3437879186286016    0.0650991298663502 O
   0.0978552864290511    0.3537964448638550    0.1389086037712395 O
   0.1356874576353774    0.3808074886847185    0.3861906792630161 O
   0.3860657802082986    0.3890223618396618    0.3166973086668803 O
   0.4248915598843884    0.1471679964155159    0.3986536807246832 O
   0.1636421735422001    0.1223726985070049    0.3893270135968471 O
   0.1571475460192542    0.1436154622001462    0.6340566769854366 O
   0.4054492104801278    0.1564096079696236    0.6303307420797193 O
   0.3541151877365279    0.4019787767114334    0.5843390584159792 O
   0.1255958650789309    0.3835361208606415    0.6354932960308903 O
   0.1624637907940061    0.4127725694737061    0.9192795018489516 O
   0.4200408728820508    0.3941048618352089    0.8276453522154046 O
   0.3932490855138899    0.1546632833753399    0.9105462208505253 O
   0.1174186615381399    0.1511609753208713    0.8711044979455196 O
   0.1445755543695300    0.6338352406671535    0.1235931847900013 O
   0.3963109488837201    0.5624213827615626    0.1333277457285975 O
   0.3853867613029622    0.8399701206023554    0.1143318185220090 O
   0.1415600536116001    0.8555788625325870    0.1609112099739163 O
   0.1256876243883624    0.9089190336053184    0.4000410875223319 O
   0.3812682170151692    0.8681199457845749    0.3616053765068791 O
   0.3983885728845729    0.6510869572222601    0.4008871596040397 O
   0.1313361344651117    0.6437993360699701    0.3681733186514566 O
   0.1319175987336378    0.6367763680831298    0.6213741131874085 O
   0.3812073661063806    0.6162348387115678    0.6537112911812788 O
   0.3303398670272183    0.8902204175719031    0.6354166384885616 O
   0.1047014004112463    0.8899924681279735    0.6487929056854139 O
   0.1358139888941241    0.9020824819161578    0.8924313821352153 O
   0.4027389301710347    0.8927607016925165    0.8707675833358459 O
   0.1259967083849937    0.6357370731418391    0.8595471910940763 O
   0.8497651856930077    0.6248833953469989    0.8842309183458233 O
   0.6069497622144666    0.1406559829121468    0.0998575503927408 O
   0.8630123327078251    0.1413939209614008    0.1581392355343682 O
   0.8223986952778798    0.4004922758534409    0.0642822065726157 O
   0.6077021885744869    0.3720864904866669    0.1377814540508504 O
   0.6416357480780961    0.4280538755486107    0.3817265606600524 O
   0.8745025303576177    0.3823171708354587    0.3386355603817436 O
   0.8941283983806954    0.1274194606665111    0.3959337577085187 O
   0.6620237013467571    0.1829096973044224    0.3380809762194280 O
   0.6578858393107474    0.1619190302499481    0.6040192251325408 O
   0.9095816324347485    0.1063906410534716    0.6644149548260527 O
   0.8977475788342016    0.3610840660151515    0.5963326507645660 O
   0.6097237910994102    0.3760321409084904    0.6156285833875385 O
   0.6743184832833734    0.3426819774410109    0.8626040287298292 O
   0.9350240749650177    0.3969126967920471    0.8174347574207113 O
   0.8781004612756398    0.1222606555539970    0.9103578893662115 O
   0.6352000396939231    0.0864746204214474    0.8542720168090608 O
   0.6524391997205606    0.6038386385886512    0.0957905367690312 O
   0.9224839576039433    0.6061973358556613    0.1470702656034518 O
   0.8808513088646881    0.8498926828475204    0.1204965988052094 O
   0.6339994415379703    0.8567292345467280    0.1309362198152004 O
   0.6569228494774272    0.9107774011499927    0.3883030203115364 O
   0.8762208442088152    0.8739201001945611    0.3720478366825340 O
   0.8875391138893676    0.6110142167979167    0.4007821103852422 O
   0.6718516066147899    0.6702685170033771    0.3078476217770862 O
   0.6467269410713193    0.6244796543772950    0.5607455717111608 O
   0.8947948607529881    0.6149318564830092    0.6361311624587221 O
   0.8662586805810047    0.8614108912398115    0.6241158031568542 O
   0.6124195831066553    0.8887039742048635    0.6539772265898662 O
   0.6313606368956998    0.8474480215908200    0.8860366292448575 O
   0.8908598351033411    0.8708630662699048    0.8848025375219519 O
   0.5826200220812221    0.5887901114073130    0.8418222648036832 O
   0.3617959250983327    0.6220958440348886    0.8933493798197836 O
   0.9925494365545694    0.9876330692007871    0.9949158857750066 Zr
   0.9984799857848430    0.2460623194553749    0.2690248375122951 Zr
   0.2533905078827587    0.9917863854369260    0.2596593684173648 Zr
   0.2334265792330266    0.2414965692641603    0.0030874781999950 Zr
   0.9847740422091702    0.9979680654082607    0.5066385993072642 Zr
   0.9976106870369108    0.2528486450026552    0.7239873257730830 Zr
   0.2466138412110953    0.0101007863129974    0.7607062864962603 Zr
   0.2522739419356341    0.2466283295316562    0.5003082008848908 Zr
   0.9975913692847599    0.5185913399781366    0.9772184047692225 Zr
   0.9912648061824649    0.7313212997385484    0.2670705434779861 Zr
   0.2344291704506888    0.4950855018732048    0.2345658545711386 Zr
   0.2402554038241031    0.7454522338008327    0.9924458095454762 Zr
   0.0245544707190210    0.5207404396561147    0.5166097575861196 Zr
   0.9924045534267755    0.7309011386782104    0.7572926600812715 Zr
   0.2608848289636921    0.4983743487977516    0.7516237878237303 Zr
   0.2509130064604294    0.7689976732933697    0.4991460347549309 Zr
   0.5010025286725950    0.9934090764262901    0.0145621273982041 Zr
   0.5017607503606856    0.2558255102625037    0.2440155523234446 Zr
   0.7613661961803541    0.9899511991953668    0.2689406088549193 Zr
   0.7426086610166766    0.2320588825357168    0.0040054285619960 Zr
   0.5197407460912583    0.0208853538884137    0.5061455304472688 Zr
   0.5246165461779522    0.2348213207763052    0.7598356082856925 Zr
   0.7675411149481426    0.9999094992767791    0.7646953176449011 Zr
   0.7494017477775619    0.2993445372752472    0.4709767555051639 Zr
   0.4937825196460034    0.4873699925569716    0.9908274837388961 Zr
   0.4933440067150487    0.7278450706390017    0.2310064841964537 Zr
   0.7447799761054584    0.5038547944479144    0.2306014295513576 Zr
   0.7557669463697874    0.7570158388989258    0.0214251537492571 Zr
   0.5004046443189022    0.5065283710383811    0.5009309250826288 Zr
   0.5216561010014527    0.7547759457987725    0.7598990163717320 Zr
   0.7654055376877695    0.4786287107218768    0.7447605721923225 Zr
   0.7604543983912825    0.7398896877101460    0.4911859538633218 Zr
