0,0,0,0,0,0,0,0,0,0,0,0,0,0,0,0,0,0,0,0,0,0,0,0,0,0,0,0,0,0,0,0,0,0,0,0,0,0,0,0,0,0,0,0,0,0,0,0,0,0,0,0,0,0,0,0,0,0,0,0,0,0,0,0,0,0,0,0,0,0,0,0,0,0,0,0,0,0,0,0,0,0,0,0,0,0,0,0,0,0,0,0,0,0,0,0
1.0
  10.5279675717163812   -0.0000000000000000   -0.0000000000000000
  -0.2971049417829408   10.1350494055630609   -0.0000000000000000
  -1.5185897016948084    0.2360969414833932   10.5878692260965934
O Zr
64 32
direct
   0.0452796887467486    0.1597511148927515    0.1779657368883723 O
   0.4715428122803660    0.3923113675468161    0.0732120244354186 O
   0.4741583002078806    0.3371912151906414    0.3306271734422028 O
   0.0478293319382780    0.0982738618781286    0.4285706890311570 O
   0.2245882352159849    0.3838105934016454    0.2438262301669694 O
   0.2582224183970662    0.1246929815219728    0.0080160256882290 O
   0.2745969002563500    0.1086927101887029    0.2720543341619963 O
   0.2389290257767645    0.3729587864051032    0.4791049038362689 O
   0.0214072602442256    0.1607696717969901    0.6718994232820438 O
   0.4657280735915340    0.4136396226673018    0.5817334079192006 O
   0.4676525379470916    0.3453377504115137    0.8306963268607112 O
   0.0239235322188391    0.0943336498605515    0.9232057894809914 O
   0.2217178796524392    0.3736499843006615    0.7241719251028885 O
   0.2843649106654394    0.1315636806217553    0.5177055494782320 O
   0.2648133379746619    0.1133822959256251    0.7632119075557496 O
   0.2310873271420323    0.3716215104744501    0.9794494766368765 O
   0.0223072246045955    0.6427410058435290    0.1954820282912623 O
   0.4380417964144682    0.9287740558557882    0.0947862249116567 O
   0.4559485153248273    0.8355861792940572    0.3296160317033520 O
   0.0470896424866590    0.5652634814920348    0.4217109357371719 O
   0.2227747070215122    0.8659057670740636    0.2433135117357084 O
   0.2708032330551228    0.6295650459209174    0.0226295874158934 O
   0.2562657660090922    0.6222421881950653    0.2505840115743601 O
   0.2288938411345494    0.8727188663505228    0.5000567899299532 O
   0.0266746762292493    0.6655966163240031    0.6652979352198637 O
   0.4623178500815774    0.9198960028541748    0.5844428103388388 O
   0.4640761046239538    0.8319785102675431    0.8341719479053400 O
   0.0169909436046599    0.6128754966834085    0.9392382470581598 O
   0.2087070570531457    0.8750756591767725    0.7398822659040398 O
   0.2884440133536884    0.6323394374844417    0.5092752386107726 O
   0.2691149450493060    0.6138508537165995    0.7542374289830641 O
   0.2284637378119427    0.8647096107117037    0.9781819756776730 O
   0.5329575418093419    0.1480957903423003    0.1821198997950684 O
   0.9725597059132688    0.4137125824533068    0.0569273055729090 O
   0.9641911558823471    0.3388280102181505    0.3238083995077786 O
   0.5405004237244143    0.0976709837117072    0.4358926513206913 O
   0.7275578116125592    0.3663818464136685    0.2395729544003020 O
   0.7748924154571858    0.1285560097704000    0.0214100227778854 O
   0.7907051245731518    0.1259937775614662    0.2579469532234553 O
   0.7185541394135787    0.3731642257787149    0.4842987987291580 O
   0.5440353241545277    0.1741568310720751    0.6825531023643255 O
   0.9582081956762397    0.4333176428148925    0.5940043419783189 O
   0.9603314099237354    0.3346885028037127    0.8208546107916114 O
   0.5351461505633481    0.0835364667056480    0.9129457028025267 O
   0.7019766952294194    0.3698455158706569    0.7361150243327436 O
   0.7740551206183037    0.1324123180395551    0.5057386250485550 O
   0.7722987965593578    0.1315608006339791    0.7562025319660814 O
   0.7349795542268901    0.3775062925720225    0.9948691499170866 O
   0.5241382054208347    0.6602839924827888    0.1733912973514140 O
   0.9804468125262114    0.8918247282371078    0.0522568981052649 O
   0.9826007422897867    0.8503269344551247    0.3136512377121896 O
   0.5348079778969503    0.5742116142835122    0.4026393348902049 O
   0.7348688386308175    0.8776359713897857    0.2390287866950758 O
   0.7798875266463148    0.6351579889094953    0.0054057361191172 O
   0.7677459812420192    0.6163161262184571    0.2612643748925317 O
   0.7168007115156851    0.8820961178248254    0.4841949208311113 O
   0.5231605173259426    0.6683604479238526    0.6669285323146452 O
   0.9623307897459460    0.9172732908352444    0.5743771373290778 O
   0.9723419588438891    0.8457583083499302    0.8088285998463534 O
   0.5229028630913682    0.6065654358732900    0.9413901396640717 O
   0.7256236438762685    0.8776292514162414    0.7402062887009538 O
   0.7727368536958389    0.6280338505806948    0.5144653214713124 O
   0.7577221583641985    0.6314764001081138    0.7547377583021063 O
   0.7308045441057418    0.8738084630405371    0.9918481138033084 O
   0.1371457274650991    0.0135043917133694    0.0977700937076682 Zr
   0.3610083163957042    0.2767977988823980    0.1551869340008611 Zr
   0.3538263646019799    0.4896022716261169    0.3891037588890612 Zr
   0.1500734431029942    0.2297973018404998    0.3523290770257543 Zr
   0.1428030251094586    0.0148948514780411    0.6003894971739808 Zr
   0.3668714897590160    0.2736125285720064    0.6443822634287755 Zr
   0.3684469402310380    0.4835418100551060    0.8946898770010913 Zr
   0.1434093644356886    0.2347710467170661    0.8388159570492012 Zr
   0.1286572812551579    0.5198892195026598    0.0974956273312950 Zr
   0.3603788014477463    0.7713268547432028    0.1498558059150631 Zr
   0.3712079817728271    0.9839921279089574    0.4074529794972216 Zr
   0.1367164956903544    0.7328780116894659    0.3570302666642998 Zr
   0.1386279107836081    0.5135781987043752    0.6030188469048392 Zr
   0.3554538193888299    0.7698830191359519    0.6576795873655866 Zr
   0.3515971956012415    0.9777137470029980    0.9063013293693336 Zr
   0.1436133348743401    0.7236908396333256    0.8582992574560057 Zr
   0.6334505949884323    0.0120661240859343    0.1121109616630215 Zr
   0.8705988190050832    0.2677661463548124    0.1431542519966304 Zr
   0.8610955593339394    0.4802317401296849    0.4050027953151146 Zr
   0.6437198324316100    0.2192229340023576    0.3477365303327757 Zr
   0.6406605279259380    0.0215455192552990    0.6110222100830639 Zr
   0.8574515088837672    0.2701133392130590    0.6485669226037107 Zr
   0.8565738959803446    0.4880998761959489    0.8966807112142723 Zr
   0.6339925059208675    0.2277035482098247    0.8491408482964935 Zr
   0.6398421466084881    0.5208463365937347    0.1104174660297541 Zr
   0.8624982486206224    0.7679812649129040    0.1432381167177597 Zr
   0.8711706411747040    0.9773201482000584    0.3985299633659741 Zr
   0.6272160994157745    0.7261330721968586    0.3516295689810435 Zr
   0.6339571579747882    0.5199765792434659    0.5978745084324910 Zr
   0.8666435324406632    0.7662081503048139    0.6374186322367437 Zr
   0.8660306696193342    0.9820529337993555    0.8887307164889376 Zr
   0.6402325665290484    0.7384719146745221    0.8492561622915881 Zr
