0,0,0,0,0,0,0,0,0,0,0,0,0,0,0,0,0,0,0,0,0,0,0,0,0,0,0,0,0,0,0,0,0,0,0,0,0,0,0,0,0,0,0,0,0,0,0,0,0,0,0,0,0,0,0,0,0,0,0,0,0,0,0,0,0,0,0,0,0,0,0,0,0,0,0,0,0,0,0,0,0,0,0,0,0,0,0,0,0,0,0,0,0,0,0,0
1.0
  10.5410518503238944    0.0000000000000000   -0.0000000000000000
  -0.2732051681818041   10.5201431035782296   -0.0000000000000000
  -1.3890920119579004    0.1565188675269152   10.0786457598926606
O Zr
64 32
direct
   0.0288799492808107    0.1496822444372059    0.1719823263555659 O
   0.4469682273266791    0.4170249759412604    0.0764817955868120 O
   0.4550539556364931    0.3245620957322739    0.3196605865463330 O
   0.0399398176474208    0.0917667612672547    0.4370277979734165 O
   0.2212849357841838    0.3824256914415776    0.2359037017911146 O
   0.2760461660821255    0.1245096596044697    0.0020928395939798 O
   0.2734488954838912    0.1202659725066049    0.2733578105665401 O
   0.2254153666572740    0.3645507959574250    0.4823800631675122 O
   0.0331899621197792    0.1363061732820267    0.6906301443393653 O
   0.4715442113982619    0.4255266836948145    0.5762178641113239 O
   0.4702619399977054    0.3522659859257070    0.8191236440963993 O
   0.0363685549682860    0.0983490152274144    0.9383558297618669 O
   0.2343239095226500    0.3794318901180206    0.7391716482829676 O
   0.2737915099007533    0.1228555676560476    0.5104277199891177 O
   0.2694906921094746    0.1255130082774809    0.7667592275395444 O
   0.2152910606244766    0.3769435854108598    0.9962582522204788 O
   0.0339848381817548    0.6671253994067056    0.1717280979243816 O
   0.4678390693512061    0.9208980790177195    0.0878367946339478 O
   0.4697868156881526    0.8404600937495176    0.3198256452992282 O
   0.0400962922884243    0.5856028420020331    0.4163565601143513 O
   0.2323768875172170    0.8787001005703409    0.2305298060326653 O
   0.2688930580316534    0.6220415990688994    0.0188162824270172 O
   0.2771123266784273    0.6272016779536804    0.2637350747237999 O
   0.2266244512180653    0.8683034971857057    0.4914573462251295 O
   0.0300411341926419    0.6733719615695091    0.6581287468992901 O
   0.4551957377230129    0.9201269338967473    0.5747560506344945 O
   0.4712792241790474    0.8296573730424284    0.8260086812386056 O
   0.0422128176816068    0.5764503909769534    0.9136691107494658 O
   0.2270028119223698    0.8650287582331040    0.7449079144220224 O
   0.2784496096827525    0.6105088227577549    0.5104315144473131 O
   0.2614450676999331    0.6345261232647225    0.7549717555685813 O
   0.2374791323959327    0.8701095247937161    0.9876163827793875 O
   0.5256686938053926    0.1738247246350076    0.1841881369010206 O
   0.9768045554442591    0.4087516494604768    0.0646319048430310 O
   0.9470870222375330    0.3223317949690668    0.3143350700753015 O
   0.5475964479607256    0.0835231530149000    0.4266281476238524 O
   0.7246644911220901    0.3947095459021803    0.2446679423750540 O
   0.7962296023511863    0.1429340079442455    0.9958093277907696 O
   0.7564143044539318    0.1254250958255828    0.2467330740699120 O
   0.7182365655049047    0.3544341746273007    0.5095597385947510 O
   0.5359844174844355    0.1565422826438800    0.6893438243605849 O
   0.9788560285524583    0.3854156704923835    0.5622172767346423 O
   0.9653992577697625    0.3402802693560398    0.8109257257978124 O
   0.5351384866917794    0.1105401793763233    0.9430334431757252 O
   0.7334358370850994    0.3843224982229838    0.7444355048728201 O
   0.7745363482931468    0.1278914224200205    0.5085001372599668 O
   0.7813658520515623    0.1202583279439748    0.7518071807675776 O
   0.7043609974520830    0.3768193612915099    0.9888875249353091 O
   0.5516956660486840    0.6814054399405525    0.1558587418511205 O
   0.9759813899176606    0.9097360639272083    0.0729377753631684 O
   0.9744146551440360    0.8544553743725057    0.3150446330136537 O
   0.5283751958431897    0.5877003185171450    0.4114560225146920 O
   0.7229115881139148    0.8775371716869036    0.2415014703449526 O
   0.7683219014561712    0.6139804091686820    0.0058392490719534 O
   0.7755798706351366    0.6219259750850050    0.2584939848632746 O
   0.7116153635409022    0.8608949617040428    0.4811345335796032 O
   0.5379596728493120    0.6531941419858043    0.6838067670783381 O
   0.9665538398419499    0.9012009112275227    0.5835734135736348 O
   0.9560307195968709    0.8335474991849990    0.8411276839925652 O
   0.5367157166904181    0.5877070075095980    0.9252772947542627 O
   0.7055806559580166    0.8756403649071373    0.7357481019829964 O
   0.7847933705803817    0.6110362974887203    0.5193361498356448 O
   0.7791734394275089    0.6320693523716799    0.7617799550166717 O
   0.7387066100636790    0.8878697518683384    0.9903768482092485 O
   0.1452819577282828    0.0177782057070580    0.1049618304583876 Zr
   0.3453609159892116    0.2561117381730926    0.1467890477098935 Zr
   0.3685885823524043    0.4743247852612625    0.3972514832233414 Zr
   0.1323648182009138    0.2203571693455993    0.3579618072258176 Zr
   0.1332213852926341    0.0025100473370137    0.5927711705549247 Zr
   0.3605866909571405    0.2707348283944356    0.6479728902357567 Zr
   0.3642673466709015    0.4769592922005621    0.9010022740194724 Zr
   0.1354829978676952    0.2258039192750267    0.8539956267886201 Zr
   0.1493104485763257    0.5181959670621101    0.1106392825549487 Zr
   0.3713920014399354    0.7714344829506893    0.1435741963824524 Zr
   0.3660674950045991    0.9807855723350130    0.4016502042475906 Zr
   0.1381209343840682    0.7347606556205761    0.3397939605168218 Zr
   0.1349445781899049    0.5261166881503664    0.6033927964707798 Zr
   0.3693998910536967    0.7643307743475318    0.6419330677685119 Zr
   0.3588125729161379    0.9819609236415114    0.8873450847423423 Zr
   0.1313323535178892    0.7219579265615395    0.8599149753421141 Zr
   0.6409099382518588    0.0325531360202994    0.1013039766178739 Zr
   0.8682249239933904    0.2805733788009946    0.1403821117942604 Zr
   0.8514662430031031    0.4793004391092505    0.4104561838319892 Zr
   0.6360850296206247    0.2345416528560292    0.3486881611599998 Zr
   0.6407233340772182    0.0246077612208589    0.6100492177498144 Zr
   0.8580027346527798    0.2577113626253605    0.6493360479086527 Zr
   0.8656692621150578    0.4801346518569004    0.8897042866397460 Zr
   0.6368434245667763    0.2341708916338496    0.8468089305373996 Zr
   0.6284119534929327    0.5160793791502396    0.0969851288443747 Zr
   0.8678380466736385    0.7757699047831658    0.1497781290029264 Zr
   0.8523759262831996    0.9815882512797226    0.3941722836424316 Zr
   0.6364617295766026    0.7252747106015317    0.3505844396437673 Zr
   0.6354639771298759    0.5242609708952715    0.6074547596923581 Zr
   0.8630789153874114    0.7743996171655376    0.6563320728389654 Zr
   0.8667936345584523    0.9948993436650028    0.8942576316816586 Zr
   0.6458356382010547    0.7435117671840542    0.8670362172539604 Zr
