0,0,0,0,0,0,0,0,0,0,0,0,0,0,0,0,0,0,0,0,0,0,0,0,0,0,0,0,0,0,0,0,0,0,0,0,0,0,0,0,0,0,0,0,0,0,0,0,0,0,0,0,0,0,0,0,0,0,0,0,0,0,0,0,0,0,0,0,0,0,0,0,0,0,0,0,0,0,0,0,0,0,0,0,0,0,0,0,0,0,0,0,0,0,0,0
1.0
  10.2691416390506056    0.0000000000000000    0.0000000000000000
  -0.3552615622328466   10.7610447667157167    0.0000000000000001
  -2.0045735162350788    0.2974670984768107   10.8153860213391297
O Zr
64 32
direct
   0.0315964918416285    0.1591255491944036    0.1846371634780306 O
   0.4660488764016529    0.4252710632866072    0.0851538184012010 O
   0.4665071467230569    0.3217478773308062    0.3272595989469599 O
   0.0328371427526071    0.1008775818967185    0.4258898775699620 O
   0.2272042621659486    0.3842843090430843    0.2454984360115559 O
   0.2685045856182319    0.1397594036706894    0.0163101655781823 O
   0.2735838542399606    0.1210038419267006    0.2602246563689019 O
   0.2186371521726035    0.3760438243361292    0.4938697113872080 O
   0.0149149601402309    0.1558876339495416    0.6790531693283620 O
   0.4695675333265804    0.4154288744995985    0.5760933286437183 O
   0.4743743868196627    0.3410152942358273    0.8229773280711739 O
   0.0229670525410927    0.0877225208027092    0.9342718136424769 O
   0.2326223446408674    0.3789807610703475    0.7432981611417905 O
   0.2724797726217845    0.1344127218362172    0.5088309651030476 O
   0.2678877799926009    0.1078374701709209    0.7457826636872366 O
   0.2291876905842205    0.3693868316208999    0.9960161265206701 O
   0.0354110933180168    0.6637428500096533    0.1649562113252341 O
   0.4429460002982733    0.9220677156490181    0.0766956620562023 O
   0.4655066661242365    0.8426506073880264    0.3248559783319667 O
   0.0351732655112100    0.5845299087022630    0.4272220505105831 O
   0.2177922867113886    0.8837159611105987    0.2368602460185525 O
   0.2757612246991278    0.6303466969611168    0.0051753883300662 O
   0.2757842050507331    0.6167432354006415    0.2578476792134608 O
   0.2226455265822097    0.8622180442662220    0.4996313593743489 O
   0.0261300372270332    0.6548620670831582    0.6714141090454476 O
   0.4641802599533552    0.9047461151803187    0.5902200711657649 O
   0.4830910476455315    0.8290461873055289    0.8355787325824041 O
   0.0370751901396499    0.5791755586281407    0.9161999360955856 O
   0.2274672376582914    0.8765959982792024    0.7441973778854934 O
   0.2731957522412516    0.6202552903074424    0.5172750384740592 O
   0.2869795008292901    0.6244632381791636    0.7742902131534946 O
   0.2251603705743013    0.8652460413831393    0.9903448759911947 O
   0.5285451982690765    0.1607876406800393    0.1635136583392179 O
   0.9772852982309393    0.4054572841181759    0.0861137441569268 O
   0.9525718588018701    0.3196870372477333    0.3232811595999867 O
   0.5345666836970594    0.0805548231667943    0.4237269996334883 O
   0.7257898937290457    0.3914752031053353    0.2428997472135281 O
   0.7693885882075964    0.1227013990287207    0.0187675488881781 O
   0.7681714412140817    0.1297868547722311    0.2603702438400188 O
   0.7213688958679865    0.3594459142221568    0.4997731406382792 O
   0.5325311544451764    0.1699780288830378    0.6797592209926239 O
   0.9704277958499461    0.4064330679324244    0.5696484662446812 O
   0.9674276702600685    0.3479262974681595    0.8149852419607515 O
   0.5261626029540771    0.0894750975437333    0.9251350103416026 O
   0.7239759394786422    0.3764559923433090    0.7353346215945136 O
   0.7754580079974739    0.1312936643495808    0.5211802083049526 O
   0.7706700415897851    0.1161623055472836    0.7663476077457438 O
   0.7252203771743564    0.3668323484617203    0.9811854276271191 O
   0.5328211347653448    0.6750774704279544    0.1607370292997413 O
   0.9723863847250042    0.9173699587997785    0.0807727773540749 O
   0.9765598045974246    0.8551508006042486    0.3225322880956298 O
   0.5266749188360705    0.5878157504593601    0.4083870281731393 O
   0.7316107556783457    0.8919113948948219    0.2306485138836618 O
   0.7847578144669320    0.6346409125564418    0.0020746320987276 O
   0.7771814068685005    0.6285044017863196    0.2576231129154842 O
   0.7082599629585162    0.8790632551946705    0.4720972477104244 O
   0.5382496306417865    0.6688345627946766    0.6784670132367079 O
   0.9648663307291433    0.9031185307838649    0.5609826812403291 O
   0.9744047077812840    0.8481976220460919    0.8121467620360008 O
   0.5420024185825862    0.5800161896765502    0.9292685526776593 O
   0.7260318042513136    0.8830794970135427    0.7288792921257133 O
   0.7726971529018369    0.6305729101044130    0.4987064507228903 O
   0.7783099237103399    0.6157933319107238    0.7671278804686359 O
   0.7308602020794320    0.8693638874181799    0.9932946875131370 O
   0.1411566345503752    0.0254871634431801    0.1101962908812045 Zr
   0.3660645776350777    0.2744846668969561    0.1497275714620767 Zr
   0.3523570427559316    0.4752411631861085    0.4019088614519736 Zr
   0.1348794561267611    0.2444366600696489    0.3516926023070454 Zr
   0.1252557484570660    0.0233694825271912    0.5983605994119402 Zr
   0.3728136674929984    0.2706543799424171    0.6503733889314351 Zr
   0.3689614800068687    0.4833292415914841    0.9047946325810721 Zr
   0.1362613575913982    0.2244829354880233    0.8510271809753087 Zr
   0.1348884080748152    0.5144910605855934    0.0931770202664689 Zr
   0.3561250856617986    0.7710656499456368    0.1497037826579145 Zr
   0.3512490869692556    0.9817860683686248    0.4029365377252079 Zr
   0.1321305881875989    0.7256696564728324    0.3443827790474766 Zr
   0.1460242316159820    0.5219244628069256    0.6157007333868142 Zr
   0.3693973762498990    0.7612330464646545    0.6449818947133877 Zr
   0.3595418641796587    0.9664399987927271    0.8920200455966222 Zr
   0.1403510014733930    0.7342168708748639    0.8554652199879983 Zr
   0.6281915543521215    0.0213783276013073    0.0992591509985770 Zr
   0.8522246831007791    0.2653537075699212    0.1506420130345260 Zr
   0.8743381890994352    0.4829161150387741    0.3945895226744383 Zr
   0.6381366476082856    0.2214405604185070    0.3573667074919107 Zr
   0.6275954535465633    0.0186410527099231    0.6092149542512753 Zr
   0.8667030024574438    0.2729740231915887    0.6398501742190389 Zr
   0.8668870203659070    0.4737976166100028    0.8951753923713621 Zr
   0.6394401109610015    0.2286525421508556    0.8582018838335237 Zr
   0.6358814873889834    0.5160017042853027    0.1118348636020519 Zr
   0.8666467806315382    0.7777878227125665    0.1397086793683312 Zr
   0.8660955880370844    0.9845274649380978    0.3842651823522633 Zr
   0.6376804776216334    0.7275560440398912    0.3435339945674878 Zr
   0.6437235327005999    0.5254441859487707    0.6072138401849537 Zr
   0.8617803308742783    0.7778827172107340    0.6411794925135162 Zr
   0.8672663351996827    0.9825912337951141    0.8933055924807155 Zr
   0.6451315968031530    0.7208482492330649    0.8593123451408042 Zr
