0,0,0,0,0,0,0,0,0,0,0,0,0,0,0,0,0,0,0,0,0,0,0,0,0,0,0,0,0,0,0,0,0,0,0,0,0,0,0,0,0,0,0,0,0,0,0,0,0,0,0,0,0,0,0,0,0,0,0,0,0,0,0,0,0,0,0,0,0,0,0,0,0,0,0,0,0,0,0,0,0,0,0,0,0,0,0,0,0,0,0,0,0,0,0,0
1.0
  10.5245201413701821    0.0000000000000000    0.0000000000000001
  -0.1003713901687790   10.7928749567132076    0.0000000000000000
  -2.1439521419506788    0.1502518947483241   10.6648482694200553
O Zr
64 32
direct
   0.0316127224962703    0.1742013366085041    0.1716434800060727 O
   0.4704787853988245    0.4112593684527412    0.0846179499700537 O
   0.4626819461576757    0.3423459777209863    0.3245014008331685 O
   0.0420299962643710    0.0859322884822559    0.4194343051205218 O
   0.2239004769045216    0.3905671100180438    0.2437607308164139 O
   0.2698694840889417    0.1327121727664490    0.0092835195212190 O
   0.2695485402541540    0.1278552092113478    0.2639344614185559 O
   0.2212511198889428    0.3701388691731810    0.4928667989090702 O
   0.0390434201840195    0.1755223846084840    0.6696116290914974 O
   0.4639179859992868    0.4219573611152135    0.5844048513724353 O
   0.4723440056323460    0.3444581184273088    0.8289618942774469 O
   0.0277994795868594    0.0910691106747399    0.9226453177223761 O
   0.2232708411824933    0.3777416156410576    0.7438656732180027 O
   0.2741331144557738    0.1275143865131353    0.5148732920228033 O
   0.2886849700428169    0.1322225401448237    0.7705546219690268 O
   0.2347086014537247    0.3736565435076014    0.9945509859632335 O
   0.0438507702860394    0.6761227725895922    0.1687604292562403 O
   0.4632200401224106    0.9122773842557049    0.0696484833572219 O
   0.4641288189127903    0.8335434993262073    0.3386774328291887 O
   0.0351397487797416    0.5903362578374736    0.4204712503091101 O
   0.2330886379930416    0.8790342097263095    0.2414924132005539 O
   0.2744572118131343    0.6409009062458962    0.0044999521969392 O
   0.2791741522224886    0.6224235153595868    0.2610704721682277 O
   0.2345889265312660    0.8730856534595460    0.4900237772988201 O
   0.0412483460093662    0.6678739030797377    0.6741130005585113 O
   0.4625139200294903    0.9215746436008443    0.5828418089850627 O
   0.4546120445569215    0.8267280053060286    0.8208693376259407 O
   0.0410871233941465    0.5750309182565720    0.9138112690214542 O
   0.2252094100735696    0.8792828662901738    0.7337297245697733 O
   0.2740985066893357    0.6235813524903895    0.5047678417644040 O
   0.2751942308844230    0.6222660648701511    0.7536423127318501 O
   0.2126657588661247    0.8796908934761263    0.9835715662713707 O
   0.5254628772064743    0.1570766758314792    0.1727280789246684 O
   0.9699438760724712    0.4171992841480708    0.0781762138792564 O
   0.9664569252086658    0.3489464174218773    0.3176249674093305 O
   0.5369799455769346    0.0789325581881524    0.4172517642243009 O
   0.7239533687883449    0.3820542229263678    0.2288088960812470 O
   0.7682988159449264    0.1245151467136819    0.0150154818760219 O
   0.7727115165080761    0.1237202137613093    0.2572753290140531 O
   0.7170065709786148    0.3679297620153124    0.4841661806484181 O
   0.5454301518953866    0.1579762557608505    0.6722611765567926 O
   0.9664890679475464    0.4149200923184189    0.5680701053545744 O
   0.9670765530487175    0.3350840539643262    0.8240669029956966 O
   0.5319745206383387    0.0749481967668436    0.9131746151630521 O
   0.7263792676910944    0.3652713449201725    0.7414372390625669 O
   0.7812475617470316    0.1250911850863557    0.5075050720899121 O
   0.7715433253796907    0.1132564767054634    0.7547917207300069 O
   0.7209123228086637    0.3776888121265197    0.9876411949246399 O
   0.5312296523424523    0.6703758297520517    0.1695333727798380 O
   0.9656898086097069    0.9088000326116683    0.0702909509598457 O
   0.9777426158569548    0.8488229171734556    0.3317371434007649 O
   0.5374103868965007    0.5833412318552885    0.4375608314354163 O
   0.7184519303437003    0.8711376836920585    0.2515463974290450 O
   0.7739873010283780    0.6199148682416725    0.0076619583547477 O
   0.7707214423226932    0.6205475503942274    0.2646721411868240 O
   0.7369896193868665    0.8709773530151625    0.4909758988521211 O
   0.5420142847355317    0.6707915374465139    0.6761497210304080 O
   0.9735505497677989    0.9173484420698137    0.5729727212361262 O
   0.9652647539624331    0.8369997295636242    0.8227459415676383 O
   0.5396715330050714    0.5935150295962036    0.9265290968304921 O
   0.7268081437291457    0.8705818066674152    0.7419194948312445 O
   0.7832759944021420    0.6356551167937199    0.5033534790169046 O
   0.7715738872638247    0.6068656789635158    0.7601613431712566 O
   0.7214804837069075    0.8598626926003858    0.9890326838821106 O
   0.1285229738097909    0.0188849740588265    0.1029887493148299 Zr
   0.3564433587182138    0.2752586286368399    0.1469788617522675 Zr
   0.3590351172055042    0.4775709858725689    0.3974611696121679 Zr
   0.1357104678023982    0.2321834391428015    0.3558251515008529 Zr
   0.1445014197601496    0.0245920742451169    0.6115503228771829 Zr
   0.3684572622109474    0.2686226665770940    0.6480302072573060 Zr
   0.3661712605463123    0.4788478709303204    0.8977681638334885 Zr
   0.1390302719723489    0.2302057073925634    0.8545100127050911 Zr
   0.1323631275273241    0.5287721566889437    0.0961075505161160 Zr
   0.3670445217686419    0.7740406554797853    0.1464737322029380 Zr
   0.3613541184694670    0.9930888475907536    0.3934210862737537 Zr
   0.1367584800119917    0.7305583988710189    0.3591285081553509 Zr
   0.1385151707048609    0.5202170267759738    0.6035921497409218 Zr
   0.3635078531168279    0.7664801518311153    0.6473458996782732 Zr
   0.3643611704002971    0.9785630799412289    0.8898614567365121 Zr
   0.1368714327070741    0.7307235298695588    0.8533825254219876 Zr
   0.6340896253678856    0.0101457038840047    0.1142674344363897 Zr
   0.8564399244655821    0.2657463149670778    0.1445637706558613 Zr
   0.8645411559468260    0.4882027341167288    0.4016909148050128 Zr
   0.6337122418721162    0.2224109481411349    0.3468062063109997 Zr
   0.6434796621844665    0.0115020822389050    0.6035168568460100 Zr
   0.8598779514143677    0.2692879908980516    0.6375835562890538 Zr
   0.8587899259636933    0.4671840539345436    0.8911957612142234 Zr
   0.6325670988196769    0.2275818526055859    0.8533224817266791 Zr
   0.6335913329177537    0.5252909647832353    0.1073328634578171 Zr
   0.8631121829468218    0.7622606707495920    0.1484913911847071 Zr
   0.8692959428360999    0.9819617063493882    0.3967606597585565 Zr
   0.6391865309572567    0.7257955215823998    0.3589865000309275 Zr
   0.6377788792154333    0.5209620364066098    0.6030765363762415 Zr
   0.8694117703586672    0.7750016795011813    0.6487107025458148 Zr
   0.8579554185180296    0.9815008756483036    0.8935317471251938 Zr
   0.6374784732643001    0.7272500184833518    0.8530460900776341 Zr
