2,2,2,2,2,2,2,2,2,2,2,2,2,2,2,2,2,2,2,2,2,2,2,2,2,2,2,2,2,2,2,2,2,2,2,2,2,2,2,2,2,2,2,2,2,2,2,2,2,2,2,2,2,2,2,2,2,2,2,2,2,2,2,2,2,2,2,2,2,2,2,2,2,2,2,2,2,2,2,2,2,2,2,2,2,2,2,2,2,2,2,2,2,2,2,2
1.0
   9.9672555381781578   -0.0000000000000000    0.0000000000000000
   0.2595309571710178   10.1040953340146125    0.0000000000000000
  -0.4412615933505069    0.0004158264658906   10.6326221893253567
O Zr
64 32
direct
   0.1218233829968810    0.1440051702074767    0.1417305955451820 O
   0.1645128822091929    0.3489542328139525    0.3298468258865623 O
   0.1189635878031254    0.1055180084330102    0.3762940802050510 O
   0.1820357680783128    0.4190234588948384    0.0678262215433574 O
   0.4218962029158406    0.4028635154440982    0.1822299992418841 O
   0.4234129790934298    0.3348207103009139    0.4315851245619370 O
   0.3784036862181828    0.1033669821343898    0.3616194183745340 O
   0.3680480579706758    0.1359697200680032    0.1190823520816118 O
   0.1319100639795072    0.1497094934103821    0.6347041280818987 O
   0.1847777040852793    0.3384857823585942    0.8163617953353379 O
   0.1206913499968638    0.1131617151818491    0.8895591606834038 O
   0.2062632458096355    0.4201478200956946    0.5600155203744533 O
   0.4282882871409886    0.4047434538038764    0.6874558758081657 O
   0.4333488862064646    0.3391107900768577    0.9396955279790637 O
   0.3716739701717058    0.1098288605749741    0.8670954204181104 O
   0.3798110599604607    0.1485899720687579    0.6210841778644078 O
   0.1333308695665334    0.6426009599593800    0.1269674863135203 O
   0.1750102434186956    0.8367345470586113    0.3158169742146235 O
   0.1321611966165472    0.6050859606804734    0.3795333477428910 O
   0.1789471695511057    0.9077185754866940    0.0689163121055554 O
   0.4234256078663128    0.9042007522455648    0.1810611619523887 O
   0.4301132476912161    0.8439580259510444    0.4269516214878354 O
   0.3730297383307645    0.6009668645661538    0.3713381720516602 O
   0.3755909212160798    0.6474212462054275    0.1171127328543787 O
   0.1282528382668329    0.6348086820152828    0.6358415808084841 O
   0.1711739222045271    0.8503239993938639    0.8140555053192571 O
   0.1297518662811707    0.6069016171845345    0.8766334750761434 O
   0.1836511008627615    0.9253213069000372    0.5583331174750107 O
   0.4366589575206716    0.9106181298635376    0.6717854673300693 O
   0.4181180545112795    0.8487732565605026    0.9216627176820428 O
   0.3814194053326014    0.6168547046885909    0.8678163143672714 O
   0.3890213727031405    0.6501764323985165    0.6162595142502429 O
   0.6196732294589903    0.1436540849192011    0.1313109199160389 O
   0.6721791929499829    0.3416990861247226    0.3119756936468813 O
   0.6256207670053157    0.1136048872983100    0.3907214696926608 O
   0.6684155000909059    0.4032779241510980    0.0616076077223584 O
   0.9090840356022531    0.4036131622103697    0.1794148988586456 O
   0.9210026576248753    0.3477793036812090    0.4299702460311041 O
   0.8701247732156628    0.1149845190894281    0.3635386320865087 O
   0.8680787971672187    0.1410323039853743    0.1192792188998555 O
   0.6219991770946005    0.1498519083075475    0.6259896804931352 O
   0.6949727854756240    0.3292793782552092    0.8061056998625316 O
   0.6227541662367110    0.1101690670028129    0.8779050254857472 O
   0.6750056641033643    0.4050223744943359    0.5572384618771014 O
   0.9417098632296856    0.4137283293569999    0.6851362711273222 O
   0.9387584293019884    0.3403895406864950    0.9367491830377894 O
   0.8669832306507683    0.1017063741280416    0.8724479153423761 O
   0.8789755529045410    0.1472568290480823    0.6174568829682607 O
   0.6350389137791869    0.6468367568726741    0.1293669789735354 O
   0.6617713617343721    0.8471079469543570    0.3239607933458000 O
   0.6201600899412659    0.6092545065444178    0.3840926691160015 O
   0.6796825315436996    0.9151942696415335    0.0634125055319755 O
   0.9144440438123216    0.8991925612397764    0.1851192813355187 O
   0.9266425418872218    0.8490206092777175    0.4298428056710618 O
   0.8713043293332183    0.6085454138963050    0.3596688200996492 O
   0.8823496021445394    0.6385085670327093    0.1153399804453894 O
   0.6223844284134818    0.6460276635175667    0.6235473907044440 O
   0.6762888113379948    0.8450804291866336    0.8280263920445593 O
   0.6291154317940937    0.5957914256809969    0.8784537798565982 O
   0.6844012550175932    0.9118326185219774    0.5700072246604063 O
   0.9298435013921627    0.9130421156061397    0.6809050611210862 O
   0.9296248292981579    0.8338139580886474    0.9250665164304205 O
   0.8752839347983167    0.6139639186779603    0.8683955022468317 O
   0.8679301056860608    0.6436837847765997    0.6157887457783767 O
   0.4963273000310346    0.0096004583542122    0.0100405797741200 Zr
   0.2471076524507666    0.0058420768662869    0.2377397845131549 Zr
   0.2494513550162613    0.2358535632959980    0.4744469300775637 Zr
   0.5005294965439854    0.2360059109392293    0.2700373551862449 Zr
   0.5030564217418487    0.0155836805633482    0.5166011562993871 Zr
   0.2570584862520907    0.0132749602886912    0.7329492295629549 Zr
   0.2442521090775153    0.2412552539153627    0.9900610977006733 Zr
   0.5067412281524505    0.2471189617943004    0.7583773846582649 Zr
   0.5037420514098701    0.5099541654293060    0.0084872530306398 Zr
   0.2511472480883759    0.5126866653898935    0.2329674285132452 Zr
   0.2580280043123409    0.7444617708246795    0.4894249760256164 Zr
   0.4966810796765661    0.7428270378837999    0.2638935888004155 Zr
   0.5005187118109060    0.5097434008386424    0.5189721175402848 Zr
   0.2552165327516052    0.5049646063256237    0.7355959945564721 Zr
   0.2463324016204905    0.7435607019201372    0.9858479575925847 Zr
   0.5043424750185433    0.7378019248455104    0.7663661830550779 Zr
   0.9849312887698435    0.0049903492865528    0.0228827634112933 Zr
   0.7403534457088028    0.0026218346015383    0.2426024900132062 Zr
   0.7491706804458627    0.2395424547647313    0.4768778073004888 Zr
   0.0047968563399942    0.2431661199107200    0.2684120151344419 Zr
   0.9987351365519808    0.0110135083627224    0.5208200026950611 Zr
   0.7494319702448575    0.0097734495497132    0.7357167775747279 Zr
   0.7414998253450422    0.2387096218337255    0.9896331263574831 Zr
   0.9939172421980910    0.2443409163551509    0.7728532775715414 Zr
   0.0082459332359644    0.5048371865033957    0.0135313993611513 Zr
   0.7426209828554791    0.5010987956658880    0.2407555559126308 Zr
   0.7513997857431721    0.7457612905708653    0.4838404255316082 Zr
   0.9964989558614324    0.7355006801857455    0.2665955145425756 Zr
   0.0099377351889131    0.5026326429278171    0.5109871233320605 Zr
   0.7560957761753332    0.5060692977878855    0.7273332944966315 Zr
   0.7537533305268641    0.7447296754838528    0.9845735540391880 Zr
   0.0008226890210423    0.7415729026247970    0.7640741587579609 Zr
