1,1,1,1,1,1,1,1,1,1,1,1,1,1,1,1,1,1,1,1,1,1,1,1,1,1,1,1,1,1,1,1,1,1,1,1,1,1,1,1,1,1,1,1,1,1,1,1,1,1,1,1,1,1,1,1,1,1,1,1,1,1,1,1,1,1,1,1,1,1,1,1,1,1,1,1,1,1,1,1,1,1,1,1,1,1,1,1,1,1,1,1,1,1,1,1
1.0
  10.2022957360012452    0.0000000000000000   -0.0000000000000000
  -0.3968554291670838    9.7827951963558402   -0.0000000000000000
   0.3426334596449034   -0.2977310339580567   10.7478991626197793
O Zr
64 32
direct
   0.1392914006317292    0.1404494142063032    0.1456322458293771 O
   0.3962610577243610    0.1248464993961727    0.1027504280223277 O
   0.3714272319824633    0.3834057400545473    0.1516661040019162 O
   0.1202886516926500    0.3843831191297121    0.1123020436866281 O
   0.1118466741228291    0.3657953413351659    0.3351348082076741 O
   0.3647554724755750    0.3890981676748351    0.4087694991761641 O
   0.3737627871975686    0.1311804235810120    0.3593056385224495 O
   0.1268061395736358    0.1312087392585349    0.4042653919485522 O
   0.1108409793704642    0.1167286875208114    0.6511819277893232 O
   0.3670959097023151    0.1125057459350071    0.6122168081446837 O
   0.3738233241614635    0.3859063073116186    0.6513981402383645 O
   0.1145581443647153    0.3671134849436687    0.5954689531940122 O
   0.1417626758140621    0.3894125693295740    0.8607664176991573 O
   0.3814431706708395    0.3406393027106545    0.9000950803991307 O
   0.3789728718860652    0.0918624452162969    0.8379732242579671 O
   0.1126326782801650    0.1440787029676131    0.8995373288042098 O
   0.1489900084385838    0.6482949992796191    0.1660375353451882 O
   0.3938054049854969    0.6469475635819029    0.0932566922367448 O
   0.3905451964451011    0.8709753470889084    0.1473686423025508 O
   0.1499058741602202    0.9001932208575446    0.1086159083497998 O
   0.1505668987723483    0.8580585160459179    0.3533425755712357 O
   0.4014174402768043    0.8702039889705026    0.3915270343189827 O
   0.3580202467984619    0.6259558823776941    0.3367592716898699 O
   0.1284406376545160    0.6114660666265346    0.4244286383208019 O
   0.0992961893645280    0.6067207495974448    0.6765955013600508 O
   0.3600931496873584    0.6214605244470803    0.6125114693665730 O
   0.3728098181777336    0.8825515772520872    0.6403531279337400 O
   0.1297656160946636    0.8691328752278439    0.6028976687031496 O
   0.1165177845401970    0.8841255383690079    0.8603186857166378 O
   0.3828736005920500    0.8428217522340502    0.8905692954293501 O
   0.3898548797499963    0.6057013852080835    0.8492851537113845 O
   0.1339866048741402    0.6336636051258405    0.9058792418951943 O
   0.6443044415267649    0.1632015494346634    0.1739972150654385 O
   0.8753964984154323    0.1288673256291472    0.1064384767377325 O
   0.8739689976995771    0.4072573046952503    0.1417471185065207 O
   0.6047454869840252    0.3796875986499657    0.1000038601718712 O
   0.6208668716152828    0.3704957438286614    0.3445008255731982 O
   0.8608568861241811    0.3691844350271309    0.3916590578501427 O
   0.8727787628325286    0.1244998764477304    0.3471489497944402 O
   0.6470256757901314    0.1034593751098518    0.4027882590819529 O
   0.6073622461643815    0.0906801192061755    0.6478813394451957 O
   0.8371146785795708    0.1110460239292493    0.6063771585024273 O
   0.8669203467636417    0.3658343974429326    0.6302581110603631 O
   0.6076336861059495    0.3416957703999827    0.6012913823732553 O
   0.6406400022709920    0.3642877755905174    0.8517065418641978 O
   0.8958843558327040    0.3618643441428763    0.8884990133432111 O
   0.8722124492785394    0.1088559527189189    0.8696378251581718 O
   0.6243106438666967    0.1196198158528759    0.8998587774099073 O
   0.6508746551553681    0.6210572701441051    0.1254402986854385 O
   0.9038186040020872    0.6553319333896854    0.0871517518286505 O
   0.8957691403168614    0.8848285482959810    0.1507582030389134 O
   0.6300421275981406    0.8925401766541013    0.0818334038022008 O
   0.6488242095291918    0.8730306747275437    0.3253928107795480 O
   0.9049893108183628    0.8883943708819054    0.3856720776015938 O
   0.8771471884253630    0.6314003037224343    0.3374442633602054 O
   0.6255946133873331    0.6355666139524528    0.4020353422581568 O
   0.5962956981942846    0.5936740570074811    0.6345067814478575 O
   0.8493763434201738    0.6208405087453636    0.5804364474870440 O
   0.8993300808878508    0.8708757540104859    0.6311478348710644 O
   0.6333941179950429    0.8595221436590972    0.5981601285634831 O
   0.6359552222170386    0.8561994453431113    0.8346161910690545 O
   0.8788441762739800    0.8653707957064899    0.8885401511128638 O
   0.8768415743775255    0.6017625768002001    0.8308142959747912 O
   0.6356105520719225    0.6236261855893549    0.8802590227869159 O
   0.9998839343981301    0.0025922428072255    0.0120362638542347 Zr
   0.0085556319308662    0.2354865925826536    0.2486019920053583 Zr
   0.2694312317240447    0.9895535940527553    0.2452650493473238 Zr
   0.2460356471207043    0.2578833172288752    0.0071317617741137 Zr
   0.9864095774236017    0.0044925782389619    0.5161237660465611 Zr
   0.9954826448049862    0.2633062577122846    0.7662375674626841 Zr
   0.2356252417575210    0.9980873534711392    0.7527606433951631 Zr
   0.2446354856839711    0.2307910720989685    0.5087811528338814 Zr
   0.0005185961338466    0.4987550233609750    0.0073466348637340 Zr
   0.9955584705321049    0.7592250840603592    0.2583726901958690 Zr
   0.2332643000775251    0.4919192281992165    0.2594805398527965 Zr
   0.2499080601520212    0.7469692776286052    0.0083931892395994 Zr
   0.0021394245826154    0.4948523418498015    0.5065061386073765 Zr
   0.0051092800257429    0.7568016526098400    0.7593101587036825 Zr
   0.2552275019450196    0.5116738072034264    0.7499699720326780 Zr
   0.2538712786252805    0.7604865963159440    0.5053982889597531 Zr
   0.4917805790235436    0.9843981879007814    0.9831407532692547 Zr
   0.4987677165921094    0.2634351428644853    0.2388188568075798 Zr
   0.7503271264431631    0.0169036209687576    0.2385433294272803 Zr
   0.7439912494590971    0.2416525754967482    0.0010021980330316 Zr
   0.5008904160149763    0.0136385304125299    0.5038608844726076 Zr
   0.4883436415873383    0.2586634629775567    0.7566285502550063 Zr
   0.7471342896826758    0.9931174638324329    0.7439676846996923 Zr
   0.7559795215493167    0.2482999249380786    0.4868700296797824 Zr
   0.5003856158323374    0.5178739642200744    0.9930903529242195 Zr
   0.5039055474911680    0.7467505634316015    0.2552194324673382 Zr
   0.7358490275119647    0.4979436327300185    0.2525732216339769 Zr
   0.7613487598829338    0.7510809093105691    0.9812465025704009 Zr
   0.4972669856750340    0.4869415273443556    0.5064506504611839 Zr
   0.4973363102609199    0.7361341370963156    0.7473247178886050 Zr
   0.7437559364150239    0.4959683701118062    0.7396415222379424 Zr
   0.7684530657766507    0.7686249126497934    0.4833627957981043 Zr
