1,1,1,1,1,1,1,1,1,1,1,1,1,1,1,1,1,1,1,1,1,1,1,1,1,1,1,1,1,1,1,1,1,1,1,1,1,1,1,1,1,1,1,1,1,1,1,1,1,1,1,1,1,1,1,1,1,1,1,1,1,1,1,1,1,1,1,1,1,1,1,1,1,1,1,1,1,1,1,1,1,1,1,1,1,1,1,1,1,1,1,1,1,1,1,1
1.0
  10.1422624211651176   -0.0000000000000000   -0.0000000000000000
   0.1581228538512463   10.3740956242154994   -0.0000000000000000
  -0.2636980093776393    0.1851991290351271   10.7704147866126956
O Zr
64 32
direct
   0.1273498240508404    0.1120570497942609    0.1362379871779738 O
   0.3947433155748125    0.1652865267560454    0.0968748229638187 O
   0.3875740676710101    0.4061275364947685    0.1685746258033405 O
   0.1318410611697678    0.3758688356462335    0.0949085281070669 O
   0.1327389194918870    0.3734096960706636    0.3388511851035026 O
   0.3833007289963644    0.3842355522266311    0.4025951664358984 O
   0.3781256409583911    0.1186971157584589    0.3455649907026964 O
   0.1272710304134117    0.1277428194525968    0.3884212591422118 O
   0.1203761010927571    0.1428069948990254    0.6426461227475937 O
   0.3632326714361508    0.1403906567996897    0.5825573720335148 O
   0.4106012639145118    0.4099106036723899    0.6471334306329012 O
   0.1674499470158408    0.3853775735348235    0.5936965324536987 O
   0.0847581685698908    0.4008191802095810    0.8530444376775503 O
   0.3513075954513709    0.3855925536975482    0.9054748368950347 O
   0.3846956681370758    0.1367593403226980    0.8479023335898936 O
   0.1420219768446992    0.1270453498837935    0.8862245910588474 O
   0.1039704883572965    0.6168742419808256    0.1386026878700639 O
   0.3644602957072429    0.6458527894713656    0.1226378605345627 O
   0.3712735131158169    0.8784282497740945    0.1490727552290449 O
   0.1136329224683422    0.8726383768362962    0.1051899722291300 O
   0.1064296279357118    0.8822755191616241    0.3584988836548184 O
   0.3449467118674613    0.8804165730685007    0.4112495325440505 O
   0.3577832648242351    0.6531018037683418    0.3472605983335835 O
   0.1446143846664006    0.6309209095184110    0.3987512172640003 O
   0.1203556731143761    0.6339685694467505    0.6563425149221418 O
   0.3655517334448708    0.6216349338796173    0.6107650774022648 O
   0.3605322871567346    0.8565207013309779    0.6663722389801484 O
   0.1059150374128755    0.8746889568328889    0.6103561871981963 O
   0.1166786368758709    0.8913046859219643    0.8500487688812006 O
   0.3625303380582051    0.8863747336414601    0.9068320854959120 O
   0.3659602930221091    0.6204316286336370    0.8802427847053838 O
   0.1016582356682273    0.6566523810912619    0.9006139043926882 O
   0.6423955971997619    0.1369179003538561    0.1641893021889976 O
   0.8940877548869197    0.1403556374093157    0.0959092130215789 O
   0.9030964936729995    0.3983075115455534    0.1583981206388192 O
   0.6349131202918525    0.3696431658333450    0.0794101596684176 O
   0.6561611368354813    0.3896946864498212    0.3260450107701389 O
   0.8753387611172732    0.4061002991907215    0.3959051889440788 O
   0.8938552650302748    0.1376484437986959    0.3534101545124529 O
   0.6306660461548000    0.1275268665362723    0.4127192497846228 O
   0.5875824654845615    0.0889514490204250    0.6678486280900429 O
   0.8564341256082244    0.1259840677347761    0.6094707349859144 O
   0.8946013726441203    0.3587501891685802    0.6528578934991442 O
   0.6509665935718080    0.3488406737872330    0.5935135326399449 O
   0.6195678169387933    0.3737093064305981    0.8391354988513313 O
   0.8545518332471356    0.3695556173429880    0.8988744530557454 O
   0.8673504485318748    0.1073654239298844    0.8519607356631667 O
   0.6322438643489802    0.1080035550848956    0.8930432402989197 O
   0.6055153128445065    0.6236242299379711    0.1343670047228647 O
   0.8608436508121567    0.6394335402361411    0.0814279232207566 O
   0.8874865993581807    0.8995916361094984    0.1661393939371916 O
   0.6112818395208591    0.8610226388178316    0.1141283692832212 O
   0.6120133557250712    0.8903611078408138    0.3363968907495975 O
   0.8389254019966307    0.9092122415102940    0.4276337344430656 O
   0.8844155931640457    0.6457827506915436    0.3536169824242961 O
   0.6187156783906589    0.6236543855233940    0.3882830561547233 O
   0.6206573091581078    0.6177944738010723    0.6444818396156734 O
   0.8674720436468683    0.6090454621909999    0.5941540319834405 O
   0.8531053377811160    0.8620333374005420    0.6561938275752078 O
   0.6049053917597571    0.8737745615748959    0.5918531905960872 O
   0.6186933048849189    0.8768776688751755    0.8647669099965303 O
   0.8763621055967513    0.8667307998342708    0.9111173310889944 O
   0.8680226263216321    0.6272205270204647    0.8411122780675286 O
   0.6224510802733677    0.6225211190624078    0.8858624039307482 O
   0.0006556580324025    0.9939241525354803    0.9838931156367049 Zr
   0.0014784728832244    0.2448311318301848    0.2358384941457632 Zr
   0.2419896972203138    0.9935155929519345    0.2594140167816800 Zr
   0.2469546689027756    0.2526560205916660    0.0088080697614280 Zr
   0.9789251520707819    0.0074612345673748    0.5027170322474512 Zr
   0.0012207106911223    0.2379945681659906    0.7522220257078888 Zr
   0.2522601068996234    0.0136737623907991    0.7452804234779608 Zr
   0.2583301349689113    0.2403204394937757    0.4783018073550122 Zr
   0.9973482709399302    0.4948880784298625    0.9991049749983002 Zr
   0.9995078001605006    0.7651307866599226    0.2452658438265022 Zr
   0.2450733492972222    0.5179113836348809    0.2544348968998109 Zr
   0.2361550772800609    0.7508029912260493    0.0044700592181317 Zr
   0.0375789726351133    0.4931283539431756    0.5039989840546519 Zr
   0.0028123810037303    0.7546171867503244    0.7557991001626152 Zr
   0.2574993971600900    0.4821468560406524    0.7495685284409569 Zr
   0.2447708206523691    0.7581453905677988    0.5157614875895640 Zr
   0.4874124108433817    0.9669183641684429    0.0180263040325358 Zr
   0.5111263762889193    0.2576492023327016    0.2511999939745024 Zr
   0.7515452077972717    0.0066559908718027    0.2682666326826491 Zr
   0.7412086503724820    0.2314984708053861    0.9910892019932244 Zr
   0.5078549813518312    0.0030518844653464    0.4920296526078968 Zr
   0.5079425298334124    0.2491803458575932    0.7518026511443747 Zr
   0.7355802557578470    0.9923969179067408    0.7468464062403856 Zr
   0.7715344717261235    0.2628330452198581    0.4889272339302492 Zr
   0.5018170543887860    0.5066322208860259    0.0011827853664312 Zr
   0.5030913711768924    0.7427728499120406    0.2520244462519612 Zr
   0.7528944271777853    0.5185417326981624    0.2436207517709927 Zr
   0.7425179865540330    0.7451279040827137    0.9783745275620951 Zr
   0.4927752417329975    0.5114308504515951    0.5104554461666251 Zr
   0.4964513052100257    0.7380841423310696    0.7426059574735684 Zr
   0.7722669606875285    0.4811361574538009    0.7464889847319043 Zr
   0.7497699191391143    0.7270170414721625    0.5173112672434309 Zr
