1,1,1,1,1,1,1,1,1,1,1,1,1,1,1,1,1,1,1,1,1,1,1,1,1,1,1,1,1,1,1,1,1,1,1,1,1,1,1,1,1,1,1,1,1,1,1,1,1,1,1,1,1,1,1,1,1,1,1,1,1,1,1,1,1,1,1,1,1,1,1,1,1,1,1,1,1,1,1,1,1,1,1,1,1,1,1,1,1,1,1,1,1,1,1,1
1.0
  10.0903222307551008   -0.0000000000000000   -0.0000000000000000
  -0.3419188813293941    9.9608906344207373    0.0000000000000000
   0.2665285657666442   -0.3417008323148537   10.3472683694827712
O Zr
64 32
direct
   0.1068773178098581    0.1096142189834897    0.1670993941840158 O
   0.3433533983882212    0.1154076522730808    0.1071979925224889 O
   0.3662309597604348    0.3711945255163102    0.1529891159746860 O
   0.0949534213987610    0.3528807468432426    0.1109427280040078 O
   0.1307646002127368    0.3687459764320020    0.3462174666664294 O
   0.3906059970468890    0.3758237983496853    0.3905279351232283 O
   0.3722873310575157    0.1376879827087474    0.3540258626715326 O
   0.1335073661698621    0.1400251008116537    0.4161425004303083 O
   0.1156754776068836    0.1172501732417616    0.6712202814207258 O
   0.3788031107603614    0.1314820593054788    0.6056663404307999 O
   0.3675524920304785    0.3846395525037519    0.6360130637965626 O
   0.1131888074035354    0.3753790519094520    0.6058837457903279 O
   0.1340097830284824    0.3669855625101613    0.8474345078804908 O
   0.3824940174734305    0.3642652782362443    0.9104102320167125 O
   0.3599008983435108    0.1197769194944476    0.8448543755550609 O
   0.1045802757668440    0.1295144228644698    0.9230800800112470 O
   0.1217582404454804    0.6314630744167159    0.1395674476907559 O
   0.3766419363040498    0.6242953257537435    0.0952566919214128 O
   0.3657735062722212    0.8612122429159829    0.1649971705610010 O
   0.1163020324800906    0.8779943343939278    0.0952775704946058 O
   0.1135553566670333    0.8817605058897088    0.3404988437712780 O
   0.3783691164348129    0.8896818798432928    0.4081626702517926 O
   0.4069404096881288    0.6366162683290725    0.3374187748910704 O
   0.1395187740970778    0.6170669742748026    0.3891698699220353 O
   0.1483452803621186    0.6344990797832599    0.6384208041982204 O
   0.3907291576000524    0.6420196932030849    0.5861707303531729 O
   0.3864028988283553    0.8851337365842628    0.6582525785151224 O
   0.1267247386010791    0.8846821478894290    0.5965401040147709 O
   0.1280061948311269    0.8702489040925695    0.8441734274875708 O
   0.3976926161400334    0.8619961696030216    0.9034503873283892 O
   0.3635986473152906    0.6220530217232824    0.8450353870677731 O
   0.1205295673113712    0.6378468963897340    0.8818985248041985 O
   0.6038741331923265    0.1113081653131014    0.1572069714841379 O
   0.8741773347305394    0.1304078256030040    0.1183785659230204 O
   0.8559544602777990    0.3677968582101163    0.1546297123614644 O
   0.6147366984253414    0.3769684095181922    0.0889018470819833 O
   0.6200785430316063    0.3880137606582626    0.3537347118776781 O
   0.8848170380172826    0.3732990070215649    0.4070986290472104 O
   0.8724149658655730    0.1252507218344676    0.3668297932616331 O
   0.6195204106788736    0.1445175285864679    0.3998495490367583 O
   0.6189085177766465    0.1309200171001765    0.6562920993552479 O
   0.8721256363213089    0.1301761664687261    0.6164207227012157 O
   0.8644075750254196    0.3676893370923411    0.6478927821734954 O
   0.6261544636177427    0.3712766325464867    0.5933786278423271 O
   0.6170093038595464    0.3660833625848134    0.8509829081141492 O
   0.8918313247218923    0.3437952124324257    0.8990448161793462 O
   0.8730102418768699    0.1031248308175766    0.8701998179303135 O
   0.6148999350355812    0.1174495760422362    0.9125507649582687 O
   0.6159018363578495    0.6152185885303971    0.1418363168320299 O
   0.8793041370888601    0.6178499235040230    0.0982981641608705 O
   0.8644759975576366    0.8700270195965726    0.1600380298228194 O
   0.6292442295397209    0.8704903378650659    0.1024390179466259 O
   0.6296537872502909    0.8724462447405241    0.3545554889365826 O
   0.8781517062115836    0.8863233111183170    0.4061198260686513 O
   0.8959171271817794    0.6251662468009493    0.3402450445552699 O
   0.6687396683154440    0.6092325946920492    0.4035253277487685 O
   0.6234977145562212    0.6126957521254076    0.6517371218754905 O
   0.8788975117799531    0.6299607111715083    0.5829278468884931 O
   0.8672989156140245    0.8843928183340534    0.6462608053853217 O
   0.6194519881578597    0.8704082308354159    0.6019158585534328 O
   0.6465101660472917    0.8594352120807007    0.8462995944346741 O
   0.8973960312740111    0.8404557799536627    0.9019668591302348 O
   0.8748322360792404    0.6078788060759842    0.8418911500925390 O
   0.6251633144136991    0.6161168785920873    0.8926538648153094 O
   0.9855017671779771    0.0104444819102514    0.0080030335971792 Zr
   0.9898123865149553    0.2461474661076345    0.2548248508733520 Zr
   0.2468268040773127    0.0043183342973576    0.2625164034607697 Zr
   0.2320778391781489    0.2510963698995852    0.9998327913202799 Zr
   0.9936147242090990    0.0045693970830324    0.5007036077444446 Zr
   0.9856386122291638    0.2445043479437394    0.7460833858111188 Zr
   0.2439960663020559    0.9899199076323272    0.7475592521416993 Zr
   0.2654846503224114    0.2539427471110386    0.5032310647665443 Zr
   0.0046307514013839    0.4912877938056061    0.9889337913936319 Zr
   0.9986478416326892    0.7557926747344071    0.2322817348382105 Zr
   0.2626822590217880    0.4953863033118618    0.2640708038904944 Zr
   0.2582582537776902    0.7440083602757769    0.0068721278371129 Zr
   0.0098647769197760    0.5162629944268211    0.4927103693121709 Zr
   0.0032134275897999    0.7414542450161641    0.7452070602461278 Zr
   0.2453557197043433    0.4962435398472935    0.7428261363519859 Zr
   0.2571683806279220    0.7650678372999548    0.4951621654282185 Zr
   0.4870817631982805    0.9993524420145000    0.0129905423924671 Zr
   0.5040828067631492    0.2535146175710992    0.2504777014234874 Zr
   0.7505622611075520    0.0027261371575060    0.2580639033945805 Zr
   0.7450923686313113    0.2493046771010423    0.0111661953739174 Zr
   0.5072194909939510    0.0037781354997498    0.5027636911247954 Zr
   0.4850750281585813    0.2439354634874674    0.7653261544134329 Zr
   0.7435372222929961    0.0065118384047148    0.7470832589110099 Zr
   0.7572657140419305    0.2568878482569090    0.4967366782482444 Zr
   0.4877024532776688    0.4990224720025134    0.9980377657408933 Zr
   0.5131781158214359    0.7622243924731326    0.2376028986018167 Zr
   0.7584943871730822    0.5066506065439530    0.2392712692368061 Zr
   0.7548777677760123    0.7389920114297999    0.9826127545204703 Zr
   0.5228784755291260    0.5083005669610290    0.4915572589477785 Zr
   0.5011611647750720    0.7328535330930281    0.7555936730952708 Zr
   0.7408335549243075    0.4864776900047229    0.7414824371549104 Zr
   0.7592245533081523    0.7643718824304108    0.5043688513957887 Zr
