1,1,1,1,1,1,1,1,1,1,1,1,1,1,1,1,1,1,1,1,1,1,1,1,1,1,1,1,1,1,1,1,1,1,1,1,1,1,1,1,1,1,1,1,1,1,1,1,1,1,1,1,1,1,1,1,1,1,1,1,1,1,1,1,1,1,1,1,1,1,1,1,1,1,1,1,1,1,1,1,1,1,1,1,1,1,1,1,1,1,1,1,1,1,1,1
1.0
  10.0408837521288561    0.0000000000000000   -0.0000000000000001
   0.3840182433553826   10.5781953835906872    0.0000000000000000
  -0.4805858520743394   -0.4632041970435852   10.3421888748243695
O Zr
64 32
direct
   0.1662086382359171    0.0914833149902414    0.1193969697561697 O
   0.4248835443218276    0.1537457757147711    0.1334343838139811 O
   0.3826509263677254    0.3728252400654089    0.1135928380654284 O
   0.1343211944401830    0.3782197725130978    0.1237006878315908 O
   0.1040534672597205    0.3447069907989692    0.3991471908958057 O
   0.3645124652142482    0.3810081429479482    0.3704570032777577 O
   0.3928904584112593    0.1525837123978502    0.3927172537708052 O
   0.1491013992364146    0.0903089429178010    0.3620375936581979 O
   0.1173971330665029    0.1207078989395601    0.5842564485656441 O
   0.3534452417090340    0.1370611051918808    0.6314378096687874 O
   0.3618064762437338    0.3760642856016498    0.6035472095655381 O
   0.1274699637721807    0.3958067624251240    0.6473507407602527 O
   0.1199926339381475    0.3947978317208699    0.8970281146269963 O
   0.3801135771114876    0.3668249615178973    0.8713492001810917 O
   0.4199173955090923    0.1049782719384874    0.8644890811715938 O
   0.1454756453888020    0.1428617298278942    0.8537079445331575 O
   0.0503653667806114    0.6262829761580665    0.0927176212797877 O
   0.3290535424331061    0.6429182177954579    0.1445535883258937 O
   0.3704623456891639    0.9011598942762316    0.0615552648095310 O
   0.1271588525825490    0.8554052262131855    0.1651282475760240 O
   0.1597179476379212    0.8402964647470595    0.4134713928701693 O
   0.4190247680576247    0.9101288133019922    0.3482831690076990 O
   0.3811002163633526    0.6438447670352085    0.4128398896672159 O
   0.1156050938014621    0.5900593594996977    0.3552676894002669 O
   0.1056466279590454    0.6515769948219082    0.5882410913331259 O
   0.3565195242998496    0.6123149557392805    0.6385980114013493 O
   0.3701638340123184    0.9210070440293460    0.5946007559163272 O
   0.1078932190860817    0.8975622470504566    0.6554339817561217 O
   0.0884629195652734    0.9133552593210192    0.9168696603755490 O
   0.3116613604634569    0.8568754931469468    0.8144740274957556 O
   0.1148966131702610    0.6274557006060626    0.8585073688814042 O
   0.8577671514014646    0.6329801050158964    0.8899695231930587 O
   0.6869641972641537    0.0987408316794298    0.0385126150779918 O
   0.9312911589807695    0.1005362631131620    0.1740766004750202 O
   0.8763146123222535    0.3625953999579863    0.0870716977613980 O
   0.6329452140443566    0.3910247604277439    0.1187806606191827 O
   0.6241255508587713    0.3561008325985983    0.3953980560976212 O
   0.8854221260547754    0.3667609947324482    0.3615855703141474 O
   0.8820619313017946    0.1200062026579891    0.3918682855585370 O
   0.6567524894821795    0.1014535080817177    0.3107623824607998 O
   0.5845834147740887    0.1904539892471534    0.5680890169393444 O
   0.8581461061575849    0.1387106729698333    0.6361061852307083 O
   0.9036584757833789    0.3557054015425685    0.5952806901918575 O
   0.5979107981297606    0.4248166699508016    0.6575117697331242 O
   0.6146826960876601    0.3953405802272764    0.9028702314778188 O
   0.8554662854276683    0.3628997267975326    0.8473691717846165 O
   0.9017724247352666    0.1471591349388786    0.8762454866648233 O
   0.6669958982950053    0.1837190618375454    0.8115016891182549 O
   0.6156984111467773    0.6198281457407546    0.1247443299590590 O
   0.8517213207490705    0.6293495052058958    0.1811418393218828 O
   0.8659258244442420    0.8813990027760522    0.0913876660385445 O
   0.6230071012600464    0.8672875416711400    0.1843724767531266 O
   0.6592946847047435    0.8820687156541679    0.4506655070809805 O
   0.9209353236947179    0.8780543151164770    0.3529069120062828 O
   0.8905559453870812    0.6123556618735045    0.4007226252063956 O
   0.6112914871348111    0.6101400849487171    0.3832902879147348 O
   0.6041058846162779    0.6554460163000401    0.6104339181783905 O
   0.8741756017033357    0.5858579045675603    0.6436310444497699 O
   0.8777228508521018    0.8380993024968658    0.6012111225251232 O
   0.6096787487175916    0.9421112380780506    0.6779705742532257 O
   0.6043850124207850    0.8734438604196165    0.9105299380021152 O
   0.8502927291488800    0.8594031504654027    0.8541352775333076 O
   0.6144500895844563    0.6283415437006636    0.8716967643421709 O
   0.3743846728157396    0.6364071741458065    0.8897093248798612 O
   0.0106498516334303    0.0449066737045573    0.9942264286751016 Zr
   0.0133911289399851    0.2187166483859221    0.2840806599125171 Zr
   0.2642299872059962    0.9702246413837543    0.2455067349505468 Zr
   0.2722054826320350    0.2510489521176423    0.0046383179596316 Zr
   0.0042561288747534    0.9624168164741521    0.5252218198144486 Zr
   0.0142148176426487    0.2541629716495849    0.7241339332073627 Zr
   0.2587239974684176    0.0285238101156311    0.7369026430809041 Zr
   0.2487946074381630    0.2503017037317440    0.4995343587058338 Zr
   0.9963579818366685    0.4827909328912126    0.9888325366494208 Zr
   0.0249628953340243    0.7359617876428746    0.2680338311600478 Zr
   0.2457959219561864    0.4927106309917036    0.2457593362259266 Zr
   0.2235703707262789    0.7696306095547717    0.9705426844827815 Zr
   0.0152498971871943    0.5109644262132683    0.5032749468509771 Zr
   0.9816553125509835    0.7190871551400042    0.7411199449236672 Zr
   0.2487500245271318    0.4837766029480193    0.7679640540054320 Zr
   0.2751663695595078    0.7472810015223627    0.5250983680659403 Zr
   0.5245234468637634    0.0183228519922490    0.0309752207562000 Zr
   0.5163037146198770    0.2500933270740234    0.2562622316008522 Zr
   0.7851241409510352    0.9751277926009633    0.2468817975579043 Zr
   0.7417439975897441    0.2732134441398358    0.9648259186495908 Zr
   0.5259859602446467    0.0145183885093825    0.4807658935917893 Zr
   0.4943311229576433    0.2565229584525420    0.7236610180286518 Zr
   0.7670166939938724    0.0204775635519497    0.7654389908281805 Zr
   0.7669653267186752    0.2347335444159826    0.4871806366508235 Zr
   0.4889763274507838    0.5193179071954074    0.9995068938610487 Zr
   0.4917811741826030    0.7411149908434120    0.2519347728160928 Zr
   0.7615097350705764    0.4778674286129048    0.2479662737394699 Zr
   0.7479342381167550    0.7663935024027596    0.0019221039801729 Zr
   0.4932514411104071    0.4999204633526700    0.5031201573456435 Zr
   0.4921029465096223    0.7616483297749332    0.7597003835257676 Zr
   0.7312922121156618    0.5073066889713735    0.7777414329165976 Zr
   0.7456789242404154    0.7218328810542938    0.4913276659517875 Zr
