1,1,1,1,1,1,1,1,1,1,1,1,1,1,1,1,1,1,1,1,1,1,1,1,1,1,1,1,1,1,1,1,1,1,1,1,1,1,1,1,1,1,1,1,1,1,1,1,1,1,1,1,1,1,1,1,1,1,1,1,1,1,1,1,1,1,1,1,1,1,1,1,1,1,1,1,1,1,1,1,1,1,1,1,1,1,1,1,1,1,1,1,1,1,1,1
1.0
  10.4784061586600803    0.0000000000000000    0.0000000000000000
   0.2987753475561157   10.1589893554282149   -0.0000000000000000
  -0.4030449033188052   -0.1952332823126677   11.1331873258242240
O Zr
64 32
direct
   0.1492793999107934    0.1091873945052638    0.0632036468359618 O
   0.4692548589397839    0.8304286276306850    0.0691243710249011 O
   0.4289342941519281    0.0974441476528628    0.1371693685471103 O
   0.1907466029592086    0.3345959270323515    0.1607222263519696 O
   0.1168931109750640    0.4155894990235016    0.3662261094037729 O
   0.3774623360803007    0.1452536816272284    0.3761455783454153 O
   0.3834634604886785    0.8665131610861230    0.5733775915988559 O
   0.1627788087386610    0.1488799011408403    0.3311993373314607 O
   0.8467879098024902    0.9119676690848829    0.5812806099641277 O
   0.0836168809416239    0.1548262865383606    0.5682221400448464 O
   0.3520519101178748    0.3821929391847793    0.5641986483717927 O
   0.1313269243607806    0.4314186770630688    0.6262993039312567 O
   0.8636965027612092    0.4034835341776339    0.8101877401611245 O
   0.4455749540492306    0.3212271235623013    0.0610774817848184 O
   0.1400044983940828    0.3734875154813567    0.8923437515199187 O
   0.1393687575836455    0.1555282903698568    0.7959803732974496 O
   0.1491353498732606    0.6580209042003503    0.3201074477686613 O
   0.3429988456648823    0.6550112188289223    0.6382813298683011 O
   0.3862637931389387    0.8807693127720747    0.3265369422885248 O
   0.2016233408515570    0.8493548814046962    0.1289652469755515 O
   0.1418089651495165    0.8948948590840993    0.3771966167369870 O
   0.3662120284386081    0.5961571766976577    0.8913256462847982 O
   0.3949903441889146    0.3693177471679132    0.3436367818787929 O
   0.1109044709113447    0.6873033950660596    0.5600020223533276 O
   0.1278284292127218    0.6289823380564844    0.8109508486089894 O
   0.4006515105192475    0.6011864435408877    0.1612435112841416 O
   0.3881345229135625    0.8627726618817252    0.8425808000680097 O
   0.1219406241661354    0.9006664637625735    0.6360117644095945 O
   0.1528595234158810    0.8819284353749604    0.8659304132014395 O
   0.3487848553565582    0.0909919545701013    0.9117178613132282 O
   0.1832569615419346    0.5684342675295752    0.0505441386668072 O
   0.8851791644683530    0.6507022021476613    0.9183995297719499 O
   0.6687718383898658    0.1261257578067227    0.0837619391022832 O
   0.9112752685862090    0.8935283044236816    0.0777284893960890 O
   0.9120320114323306    0.1108747005721056    0.1772932534263157 O
   0.6876615994825480    0.3893771945379246    0.1213266348682406 O
   0.6117395490160672    0.3788039220640973    0.3793927882900592 O
   0.8868088505210832    0.3805766978057635    0.3268436911826244 O
   0.8824681428322828    0.1389654174827301    0.4326297180437872 O
   0.6261311077192687    0.1461064578312452    0.3537406765324896 O
   0.3850739398662578    0.1279667172369690    0.6399957362769427 O
   0.6381573648805188    0.1575555545150175    0.5887357372938796 O
   0.8710997141634980    0.1738591373336268    0.6692300353123183 O
   0.6200425929625741    0.4219997255221444    0.6161897635897474 O
   0.3760631300875485    0.3611866029336581    0.8220756713462041 O
   0.6196603802073440    0.3821045885002326    0.8570648055087483 O
   0.8738606731462341    0.1114624247050232    0.9181435920412168 O
   0.6076984653999180    0.1438304672969202    0.8370452057142663 O
   0.6647730094510348    0.6424942312319101    0.1011510259679053 O
   0.9602129063939788    0.3699573293180663    0.0760453224420457 O
   0.9476517434491961    0.6463413274637723    0.1487270271433626 O
   0.7274376551489883    0.8312554748205957    0.2046767086559644 O
   0.6378836698154626    0.9093949354846270    0.4048792932859673 O
   0.9076509697345334    0.9120685041105553    0.3434674113252564 O
   0.8657708232499358    0.6363048814404654    0.3823228989264205 O
   0.6125452688754963    0.6190659337374533    0.3373870083356311 O
   0.5938475744826648    0.6748132968074690    0.5661285317709664 O
   0.8765918617868602    0.4081267469360854    0.5709301870504030 O
   0.8558601809289290    0.6474149803850869    0.6245303225583917 O
   0.5831955546537513    0.9295129631974385    0.6934217964870600 O
   0.6714607723496547    0.9029194062963259    0.9154073166055795 O
   0.8966205784868465    0.9010419541851544    0.8142498106784416 O
   0.6242632589557980    0.6526084642671988    0.8180550025125658 O
   0.3588808420555885    0.6029572986222783    0.3803911336313092 O
   0.0071572933619865    0.0282719936652003    0.9859821456733937 Zr
   0.0245314944513952    0.2832392089828307    0.2262968602132526 Zr
   0.2860904393170620    0.0000816901530818    0.2246464382305578 Zr
   0.2734668546979780    0.2493826493830782    0.9808351626466120 Zr
   0.0117679316090351    0.9957289223915995    0.4877485428727381 Zr
   0.0218455183143008    0.2699549148720922    0.7174234862619348 Zr
   0.2630866092564169    0.9946149354642619    0.7469316010259768 Zr
   0.2296132227432289    0.2588438555980513    0.4689060684437479 Zr
   0.0221665290176481    0.5276114482846199    0.9667774064426029 Zr
   0.0378017676980783    0.7885456001374301    0.2580425482230279 Zr
   0.2548392646583311    0.5156485731530889    0.2242079566837076 Zr
   0.2723663124343387    0.7405827008948240    0.9730441170402200 Zr
   0.0051401912613532    0.5329768318757696    0.4913674271078524 Zr
   0.0066508134483263    0.7568084966980654    0.7350540202640622 Zr
   0.2622338330593181    0.4934975192895631    0.7348865316064633 Zr
   0.2559455689202429    0.7465156416219285    0.4768184962887073 Zr
   0.5232073585881529    0.0278928539799534    0.9646979123837633 Zr
   0.5023354690313758    0.2336158930131394    0.2601361564879256 Zr
   0.7689375095414316    0.0174772106421360    0.2398032211590717 Zr
   0.7499766837666639    0.2601950449146743    0.9853705297811322 Zr
   0.5084383887971006    0.0258479196997452    0.5145984808511120 Zr
   0.5223795510613984    0.2988868839877598    0.7090565807681296 Zr
   0.7611251960464719    0.0107852606950544    0.7378580439265033 Zr
   0.7545190614930519    0.2780111530879296    0.4624304674958709 Zr
   0.5222306993580645    0.5133351296040105    0.9833663115238643 Zr
   0.5076240259354712    0.7359385278084795    0.2350457904117112 Zr
   0.7822544550012942    0.5332121136034140    0.2486283681115619 Zr
   0.7617983898673707    0.7809291946929795    0.0147685040939368 Zr
   0.4974041562048497    0.5020915443069519    0.4698799491467924 Zr
   0.4871823658118227    0.7428836600967869    0.7134875027185377 Zr
   0.7342790714144474    0.5096436074095916    0.7423557731512556 Zr
   0.7416649968151082    0.7697710790691253    0.4858365374804796 Zr
