0,0,0,0,0,0,0,0,0,0,0,0,0,0,0,0,0,0,0,0,0,0,0,0,0,0,0,0,0,0,0,0,0,0,0,0,0,0,0,0,0,0,0,0,0,0,0,0,0,0,0,0,0,0,0,0,0,0,0,0,0,0,0,0,0,0,0,0,0,0,0,0,0,0,0,0,0,0,0,0,0,0,0,0,0,0,0,0,0,0,0,0,0,0,0,0
1.0
  10.4074582175593910   -0.0000000000000000    0.0000000000000000
   0.4907319884198447    9.9594427885709944    0.0000000000000000
  -1.6960753668804023   -0.3049961850529762   10.1058515925803611
O Zr
64 32
direct
   0.0419726002592696    0.1628805883849013    0.1828560107350800 O
   0.4703725330709364    0.4120551792197232    0.0626079426858523 O
   0.4742904857064436    0.3489731623872382    0.3284170374950623 O
   0.0252998183292179    0.0903503410495554    0.4309184099732138 O
   0.2238668472860825    0.3751442316326687    0.2264649123266650 O
   0.2850187646266724    0.1220217917713200    0.0102363533000969 O
   0.2778265266627057    0.1276429140426579    0.2648035189696182 O
   0.2332777175284057    0.3705624214550619    0.4838034883957377 O
   0.0363750535198514    0.1585831001750230    0.6812922249872482 O
   0.4660349934873795    0.3981089943033301    0.5744188057602172 O
   0.4715576883211651    0.3379662519250633    0.8250720122014988 O
   0.0286440413045737    0.0993605620263913    0.9397474132088568 O
   0.2275570929942545    0.3686807094745660    0.7535592493453137 O
   0.2726273268486682    0.1181671158250916    0.5123977230183953 O
   0.2856323121183019    0.1224934204543272    0.7647425348967239 O
   0.2212085339549265    0.3669113815126370    0.9867137797096744 O
   0.0268936140598489    0.6617484655531496    0.1673607523725914 O
   0.4723464687070468    0.9147421920877872    0.0745977445140287 O
   0.4650878662987876    0.8418068819898817    0.3148403305007964 O
   0.0358570796182353    0.5844906930158333    0.4358778462108088 O
   0.2206851148081443    0.8791856160636449    0.2417542029504697 O
   0.2769873812347300    0.6241526478026608    0.0003242939766111 O
   0.2711907537144232    0.6201817456476990    0.2619161563626487 O
   0.2301510805118584    0.8664036143584932    0.4888258592108073 O
   0.0374434538401916    0.6591607513684691    0.6754221443456965 O
   0.4677421340919385    0.9111948912431230    0.5659989207539430 O
   0.4730916094360805    0.8410057856213584    0.8149118904879180 O
   0.0309240654738071    0.5778763649399954    0.9233949094751458 O
   0.2251549343210066    0.8735183875392866    0.7453024221362874 O
   0.2714963865373857    0.6309677302560005    0.5161900087103934 O
   0.2705298064650143    0.6187178716967088    0.7571322175379706 O
   0.2405518300106138    0.8737450766787409    0.9947522429659171 O
   0.5376103906530296    0.1680963597288389    0.1738849713061454 O
   0.9670535077473191    0.4161576763480758    0.0827970723926249 O
   0.9645947217449145    0.3414367089951127    0.3300399870159164 O
   0.5372746988071310    0.0858435496028716    0.4213561668495420 O
   0.7269939840734188    0.3793783237343205    0.2411382068374285 O
   0.7759372939690247    0.1279877504889052    0.0124092176152747 O
   0.7779796349814651    0.1247372587338570    0.2619371345551402 O
   0.7164031448464232    0.3865123078464343    0.4811535608211371 O
   0.5391810697497130    0.1658678902001362    0.6712713222090646 O
   0.9669207438241295    0.4061603010042286    0.5780384981201225 O
   0.9590377271700269    0.3325727793500087    0.8295279717302397 O
   0.5406486645662933    0.0873291319155081    0.9239775311914912 O
   0.7274141985180997    0.3794042585088662    0.7433352394879101 O
   0.7775194158782874    0.1315840392399771    0.5148769643540185 O
   0.7810609379880620    0.1130406753731671    0.7639491776594293 O
   0.7245460262615676    0.3799882712125711    0.9973173042042033 O
   0.5239578030025939    0.6676654363522373    0.1720922891126625 O
   0.9723830858655387    0.9073546235035310    0.0701103176916029 O
   0.9656217609975065    0.8364585551336041    0.3250128484284766 O
   0.5303363790610169    0.5942296811595086    0.4314905425982610 O
   0.7308537249220152    0.8804083926619554    0.2410705044776885 O
   0.7701436357730965    0.6279285588855861    0.0109639152707673 O
   0.7651132660871115    0.6202105620630735    0.2674334218982851 O
   0.7256303643756385    0.8765748487566805    0.4943631493824822 O
   0.5329626497570101    0.6596573542791063    0.6837628843345843 O
   0.9671800031827307    0.9008661271106991    0.5685563535504996 O
   0.9695047953714154    0.8349773913335132    0.8309583032730671 O
   0.5258242466919687    0.6027468532594216    0.9291095607611789 O
   0.7190574801224824    0.8733080276958658    0.7387362468078550 O
   0.7839347301433606    0.6290235827000965    0.5200786033963526 O
   0.7826457047579358    0.6253648583799420    0.7666792037979742 O
   0.7238846039073979    0.8777937831663133    0.9930930583790081 O
   0.1382519731131997    0.0194502383756228    0.1101808651155636 Zr
   0.3594331373724965    0.2743136700606968    0.1382392021891243 Zr
   0.3642697146883764    0.4809072031371776    0.3926646696764704 Zr
   0.1320962749051919    0.2285176607926437    0.3523636481674054 Zr
   0.1383232315755345    0.0142098770226238    0.6081965618921813 Zr
   0.3634733544455727    0.2674150200026485    0.6453422720246760 Zr
   0.3581853337283012    0.4783924905466937    0.8882907592261494 Zr
   0.1432124320781865    0.2265648683196217    0.8572821249681446 Zr
   0.1367590810940620    0.5259366957306812    0.1044147218899117 Zr
   0.3616640244278723    0.7788603023140180    0.1371082867095826 Zr
   0.3576341092607508    0.9793418735108472    0.3963835316898007 Zr
   0.1349796262042393    0.7270935316078528    0.3545797084959029 Zr
   0.1339598966374007    0.5082366923098743    0.6041925871326758 Zr
   0.3595993541035669    0.7697754468165722    0.6446623877678119 Zr
   0.3695876715866676    0.9769501109576776    0.8888667060671137 Zr
   0.1382986766813365    0.7264019376118570    0.8576807106848552 Zr
   0.6425495523826057    0.0295262825441959    0.1049038952816553 Zr
   0.8573979514066534    0.2756152115212051    0.1459420143160263 Zr
   0.8607703803540394    0.4800609610397453    0.3977843030419540 Zr
   0.6353074866748902    0.2328843083985105    0.3518220292894854 Zr
   0.6418932117227109    0.0178474693090081    0.6081641410420432 Zr
   0.8572132590122217    0.2731158676916394    0.6460002245325954 Zr
   0.8667537539267715    0.4787190765893058    0.8989314723431865 Zr
   0.6415589587039476    0.2284801994538303    0.8524819323118803 Zr
   0.6324250256950451    0.5228600630214879    0.1029252699855268 Zr
   0.8659243625974234    0.7743841523273192    0.1505677065173961 Zr
   0.8583588263082944    0.9840677657774318    0.3961346539997853 Zr
   0.6325701963057813    0.7341593168706848    0.3504412825733704 Zr
   0.6381811315411857    0.5219725173917947    0.6075929619833444 Zr
   0.8600563114772162    0.7700271101889655    0.6436087101927506 Zr
   0.8643938635662820    0.9717823669745345    0.8926742486227801 Zr
   0.6431850503416588    0.7222264388974619    0.8560405971874268 Zr
