2,2,2,2,2,2,2,2,2,2,2,2,2,2,2,2,2,2,2,2,2,2,2,2,2,2,2,2,2,2,2,2,2,2,2,2,2,2,2,2,2,2,2,2,2,2,2,2,2,2,2,2,2,2,2,2,2,2,2,2,2,2,2,2,2,2,2,2,2,2,2,2,2,2,2,2,2,2,2,2,2,2,2,2,2,2,2,2,2,2,2,2,2,2,2,2
1.0
   9.6829542766363783    0.0000000000000000   -0.0000000000000000
   0.0365805446199083   10.4633369854189979   -0.0000000000000000
   0.0028726901659074    0.5012780603743445   10.6048289176191251
O Zr
64 32
direct
   0.1121519462724969    0.1469446798638287    0.1320369992271750 O
   0.1859409877469612    0.3327978933561305    0.3185593479954461 O
   0.1306064384566858    0.1009609758878911    0.3856128027304467 O
   0.1888047788925243    0.4170777562646513    0.0699780653761465 O
   0.4338607651244899    0.4066347638325603    0.1712091531984495 O
   0.4229733284513651    0.3414190003289158    0.4295021467185150 O
   0.3746434269349731    0.0861655525203696    0.3721671485187980 O
   0.3631384952144124    0.1344417700172656    0.1186949046776888 O
   0.1245991289274064    0.1520554012203229    0.6321570003323624 O
   0.1852333303736280    0.3515990795352981    0.8294913576479379 O
   0.1241020654551433    0.0961519620948518    0.8867703006199265 O
   0.1828379429055192    0.4166765241020981    0.5778014800615636 O
   0.4233160216712999    0.3973209456845123    0.6788120523038260 O
   0.4388012770123044    0.3259540065605895    0.9344058440524756 O
   0.3726007833676580    0.1058800342818585    0.8604452450184941 O
   0.3676378353943346    0.1401027985935796    0.6132150834320096 O
   0.1264231326626781    0.6365945101136808    0.1282946001363173 O
   0.2003184978180400    0.8303387366282695    0.3128398144818759 O
   0.1296080857246693    0.6045739543298146    0.3911955234852942 O
   0.1727958059379393    0.9118641050794001    0.0666281479021383 O
   0.4343125754557025    0.9102605861900382    0.1760926087263324 O
   0.4634360636243922    0.8294119825625760    0.4354097977882944 O
   0.3863352279228371    0.5982498869476959    0.3652685550225415 O
   0.3675558540195665    0.6481163588304865    0.1186673521068487 O
   0.1326414072106801    0.6505871886090379    0.6349806637250126 O
   0.1903250681186248    0.8324825477125044    0.8138272464972137 O
   0.1222196318090797    0.6026374010123072    0.8855912406372400 O
   0.1913114218581326    0.9034335474377989    0.5534393075543995 O
   0.4256747991375541    0.9077895325728808    0.6796718825067301 O
   0.4359038291826334    0.8281996187331622    0.9359658895683928 O
   0.3722462937596856    0.6029397269997037    0.8697190600761425 O
   0.3797037496812178    0.6396937033164221    0.6134184023932818 O
   0.6166542249034904    0.1416915782930044    0.1367978933153500 O
   0.6757703251566362    0.3471967440411036    0.3168966929034148 O
   0.6363974140250407    0.1204508996293439    0.3768092815397475 O
   0.6863309125248794    0.4101944860490877    0.0668231060873255 O
   0.9314134832098482    0.4099909369396509    0.1798549596713543 O
   0.9415224002197328    0.3485176508592162    0.4316341455914469 O
   0.8831555545174268    0.1080250500999548    0.3738098517566651 O
   0.8678947730813520    0.1328392622690596    0.1226681753006589 O
   0.6199180235104211    0.1458775489357463    0.6346918367836454 O
   0.6736085678414689    0.3456217894708088    0.8235362021531544 O
   0.6272526219195182    0.1081968486741230    0.8763839317727118 O
   0.6813406951008175    0.4152064081557003    0.5717028611774299 O
   0.9345099223085952    0.4024732705098649    0.6858294068861673 O
   0.9354236427131811    0.3316003236692023    0.9357027150257687 O
   0.8721835301680765    0.1047942422200273    0.8595084576382193 O
   0.8762306933992839    0.1434984931303019    0.6121148808082204 O
   0.6179339949739862    0.6345236987460433    0.1328578757983696 O
   0.7012184960615745    0.8286285427199236    0.2991271853645504 O
   0.6361443278096922    0.6061705352491502    0.3823634996377065 O
   0.6741545814416933    0.9060942922117521    0.0562315180973122 O
   0.9255339965185750    0.8999529688090908    0.1793276604906283 O
   0.9305629098799788    0.8490066314899113    0.4307287111356353 O
   0.8802246277726644    0.6241636680240248    0.3651944481127454 O
   0.8751917809903531    0.6326445620958050    0.1091702662149047 O
   0.6259381461063394    0.6387511635676963    0.6356257738963456 O
   0.6872457334119619    0.8432624206867710    0.8097988707325633 O
   0.6267061532812579    0.6078796347579957    0.8809766601871307 O
   0.6828931677409346    0.9163770980340294    0.5633601329743365 O
   0.9257950824343295    0.9037970967766890    0.6812632809565402 O
   0.9370568454054138    0.8471066310534766    0.9363259731614110 O
   0.8700687608718094    0.6147342557493892    0.8738709473665490 O
   0.8689207340061220    0.6368394228976539    0.6147266744368741 O
   0.5015429298569105    0.0140839420518631    0.0187659133160895 Zr
   0.2433519197397666    0.0134515841595524    0.2437959240817671 Zr
   0.2496803231939604    0.2403504007316020    0.4857901472545967 Zr
   0.5014750614224022    0.2476022367362060    0.2680374353213200 Zr
   0.4986979276300176    0.0048652204930001    0.5112848253960617 Zr
   0.2530474329844760    0.0059734897114873    0.7346848641146390 Zr
   0.2449500102327591    0.2373497906127373    0.9808262241382038 Zr
   0.4892615894392014    0.2467811154668717    0.7609719161609803 Zr
   0.4856530797069577    0.5061374346789548    0.0110823565955636 Zr
   0.2553794381424090    0.5031230514718152    0.2388554632306775 Zr
   0.2581675932434376    0.7341052957091789    0.4850870816740089 Zr
   0.4987154377008241    0.7473502335577352    0.2547447453783644 Zr
   0.5025639690540281    0.5120276740357372    0.5104192946580079 Zr
   0.2456478818008392    0.5100141174133872    0.7346753632258662 Zr
   0.2491586590312583    0.7491096685495878    0.9884459348971153 Zr
   0.4953811472473082    0.7446628100607402    0.7665831395821461 Zr
   0.9981882503053279    0.0082680685728578    0.0124340476800076 Zr
   0.7472044256789797    0.0078070568236941    0.2355368036678128 Zr
   0.7432261396704948    0.2479786083334986    0.4938563996726701 Zr
   0.9952404198322433    0.2490041824521689    0.2716838754572615 Zr
   0.0045691664729692    0.0046579499229871    0.5195287443860936 Zr
   0.7532011862758841    0.0100028170229390    0.7318973040861235 Zr
   0.7467636265785887    0.2378497093271870    0.9817478101039859 Zr
   0.9956640053417817    0.2434051782487953    0.7726950596992461 Zr
   0.0136576011714259    0.5042128441255435    0.0180641778559695 Zr
   0.7511354413103619    0.5137152094427033    0.2276026135687905 Zr
   0.7492442907037249    0.7383486781198590    0.4872209807284673 Zr
   0.9994594685620010    0.7438547512314664    0.2631473291722391 Zr
   0.0051847627275604    0.5110634029485691    0.5132287067222140 Zr
   0.7479389802679618    0.5102403643728753    0.7388842558300498 Zr
   0.7483899398330366    0.7394106501771714    0.9822418561881520 Zr
   0.9976525556712040    0.7315246250914196    0.7653556250789773 Zr
