2,2,2,2,2,2,2,2,2,2,2,2,2,2,2,2,2,2,2,2,2,2,2,2,2,2,2,2,2,2,2,2,2,2,2,2,2,2,2,2,2,2,2,2,2,2,2,2,2,2,2,2,2,2,2,2,2,2,2,2,2,2,2,2,2,2,2,2,2,2,2,2,2,2,2,2,2,2,2,2,2,2,2,2,2,2,2,2,2,2,2,2,2,2,2,2
1.0
  10.2549289554852407   -0.0000000000000000    0.0000000000000000
   0.1754091159521146   10.5840180737858365    0.0000000000000000
  -0.0871902186301558   -0.4949576823157825   10.6876296344340709
O Zr
64 32
direct
   0.1330218849821118    0.1531039313584711    0.1306544718392032 O
   0.1632968446788411    0.3510611622321270    0.3218287990274405 O
   0.1163725542021751    0.1198702503507597    0.3918654522427009 O
   0.1910019734257325    0.4131064397623058    0.0682480320004674 O
   0.4224192912773818    0.3972763293992855    0.1920736037564517 O
   0.4202578822307779    0.3344945422850003    0.4349388556208277 O
   0.3662544126802080    0.1016534011936901    0.3677191594325025 O
   0.3751819586871772    0.1351007459260205    0.1225047074312591 O
   0.1213766016603977    0.1386926061374951    0.6345725757607733 O
   0.1832628242128568    0.3402103023817118    0.8197796884326575 O
   0.1282144585687206    0.1165627322973382    0.8788590889823973 O
   0.1828339460121436    0.4172497011569642    0.5717747919437128 O
   0.4292807900786869    0.4115525383773699    0.6920953116552936 O
   0.4309371068658711    0.3394117325676411    0.9358222209699175 O
   0.3866207073667210    0.1090646885222175    0.8692909038564338 O
   0.3679921535983035    0.1401587404315501    0.6211799572199102 O
   0.1263969657310270    0.6424649048897861    0.1290381539847424 O
   0.1883656091183139    0.8448274220206797    0.3215958674527928 O
   0.1389049994364653    0.6092420551790464    0.3891365547137267 O
   0.1754719722723015    0.9200048649722959    0.0669399223841913 O
   0.4253607519914632    0.9052509700756154    0.1807764224889616 O
   0.4282386289236554    0.8286064104166926    0.4386648139073780 O
   0.3736199680182068    0.6008164798591750    0.3757003798543979 O
   0.3804370174126129    0.6416653775357060    0.1215682467620239 O
   0.1312225445167503    0.6422078030686167    0.6318635626409027 O
   0.1693458626121234    0.8458759566169878    0.8169722001750810 O
   0.1303513710376012    0.6044506804921744    0.8839807429479914 O
   0.1770479260004118    0.9066815684558137    0.5720702173568304 O
   0.4189450893777759    0.9034785057186074    0.6794895473269779 O
   0.4229267747446688    0.8451975136150490    0.9305793668369985 O
   0.3855001386389251    0.6076271377522002    0.8683866369768197 O
   0.3859248807882925    0.6489535858506912    0.6177503712262202 O
   0.6184860828422513    0.1320818303144302    0.1426627572205104 O
   0.6797590701660189    0.3407371960106218    0.3169003078276433 O
   0.6309352391544492    0.0984673928147651    0.3837440941241198 O
   0.6715328562147528    0.4056694396459944    0.0774681453904855 O
   0.9185350250813008    0.4000727194764112    0.1560771539206063 O
   0.9202982941289169    0.3520753211205201    0.4219145719619403 O
   0.8715097332146243    0.1174677322622407    0.3579634928004858 O
   0.8739753044176199    0.1428764654481021    0.1009964120315587 O
   0.6250365485856543    0.1344310780783330    0.6307377267061288 O
   0.6708698873671937    0.3540474683542549    0.8316251110876599 O
   0.6222364002067970    0.1175099542685569    0.8937117907909032 O
   0.6683923310207408    0.4014334026677406    0.5730237218052973 O
   0.9255554778040511    0.4043922306465326    0.6644380014929311 O
   0.9326023381223457    0.3410235920412920    0.9305471730380207 O
   0.8808349503244791    0.1059581456041733    0.8630869702651749 O
   0.8741472052467995    0.1498948792331227    0.6095958724382751 O
   0.6357427861526009    0.6424609635114442    0.1418190904292371 O
   0.6846766051132723    0.8368341046990780    0.3066579467668414 O
   0.6374972130315318    0.6086689950837453    0.3831182088783916 O
   0.6867477494546824    0.8999329448229662    0.0709787286000175 O
   0.9277010270943247    0.9121513389900798    0.1784830880604340 O
   0.9259526934285232    0.8513102782291577    0.4316844417433167 O
   0.8840548667201029    0.6141898884788533    0.3472088716607643 O
   0.8769727021092556    0.6441200907559032    0.1139222205527402 O
   0.6283920649712871    0.6420975243545951    0.6266434335376028 O
   0.6730862676708960    0.8504230303281211    0.8226477767785748 O
   0.6300944989322950    0.6041415018192058    0.8894555817758152 O
   0.6779576569513102    0.9053601814194685    0.5629309672011832 O
   0.9287579413475946    0.9126612722593263    0.6846254044419317 O
   0.9353357996685808    0.8315090251336477    0.9341765499369943 O
   0.8694896304750335    0.5965302293799308    0.8565734081207952 O
   0.8851568185971891    0.6414801563453238    0.6162230597307500 O
   0.4985755699520014    0.0056196575422594    0.0220969965444078 Zr
   0.2462653945869024    0.0194745524029807    0.2338933429023494 Zr
   0.2454824866091747    0.2437814688667463    0.4851498126389333 Zr
   0.4928073478138929    0.2338927594988860    0.2740229078358288 Zr
   0.4926642265110195    0.9980439824867043    0.5157291831054236 Zr
   0.2426313454530828    0.0130935703478529    0.7376286996978676 Zr
   0.2541777900438783    0.2430743866258716    0.9843515256558638 Zr
   0.5084287083908600    0.2468918911118478    0.7612750418096639 Zr
   0.5015101688928307    0.5064120731277888    0.0245041455082072 Zr
   0.2552773502112965    0.5047164733911375    0.2381457644171792 Zr
   0.2497730601193253    0.7440887020023929    0.4889467866442127 Zr
   0.4997696368828670    0.7423981205358879    0.2694097264488962 Zr
   0.4992173706725264    0.5064109805260320    0.5164393403394978 Zr
   0.2493336301132770    0.5108713575350671    0.7419275181516783 Zr
   0.2430434215904710    0.7455035235171726    0.9832152740813450 Zr
   0.5011071602790865    0.7414399560300809    0.7624633715829076 Zr
   0.0002869138216783    0.0099636228355222    0.0120253572865136 Zr
   0.7421368350118067    0.0044986158262308    0.2359073488172485 Zr
   0.7495417654326891    0.2467993975597435    0.4753373334281907 Zr
   0.9907500239220605    0.2402643785699248    0.2594343845118489 Zr
   0.9948220063119826    0.0069933893366487    0.5191919097684774 Zr
   0.7483380078846086    0.0016971558460545    0.7294334852213287 Zr
   0.7474177382090947    0.2383097046168116    0.9900517210484623 Zr
   0.0042835761374465    0.2415580862435780    0.7670045903620115 Zr
   0.9925846691149596    0.5069398452721899    0.0052124686114228 Zr
   0.7572820664813467    0.5041522745586180    0.2344501061701210 Zr
   0.7680141403358027    0.7372897539098626    0.4787280975021293 Zr
   0.0072580280019555    0.7496037295905168    0.2614616466963648 Zr
   0.0171823608070506    0.5097784553711423    0.5139916650742813 Zr
   0.7512520008469831    0.5070036879297255    0.7298567389319014 Zr
   0.7444594416845673    0.7380340310778177    0.9885367189522227 Zr
   0.9980175043650441    0.7500112617424280    0.7602647247824711 Zr
