1,1,1,1,1,1,1,1,1,1,1,1,1,1,1,1,1,1,1,1,1,1,1,1,1,1,1,1,1,1,1,1,1,1,1,1,1,1,1,1,1,1,1,1,1,1,1,1,1,1,1,1,1,1,1,1,1,1,1,1,1,1,1,1,1,1,1,1,1,1,1,1,1,1,1,1,1,1,1,1,1,1,1,1,1,1,1,1,1,1,1,1,1,1,1,1
1.0
  10.0661570400923743    0.0000000000000000   -0.0000000000000000
   0.2748775636278751   10.1510025892099076    0.0000000000000000
  -0.4291047584973589   -0.0265757631687989   10.6596406814333058
O Zr
64 32
direct
   0.1461644742253864    0.1382102310876650    0.1459415107499497 O
   0.3949741403126758    0.1396045262240048    0.1018810503426813 O
   0.3793096311912804    0.3794379886512249    0.1675838814071359 O
   0.1241438213137086    0.3715484141553905    0.1089105245941459 O
   0.1127983936982720    0.3678338864677085    0.3622308105211678 O
   0.3540398688539165    0.3734120468705178    0.4088478797686824 O
   0.3939110270100649    0.1021643211681758    0.3431488888993360 O
   0.1197306763116270    0.1216854330294206    0.4127053541647585 O
   0.1191065259204235    0.1273096453512858    0.6534461261562348 O
   0.3589968183599537    0.1170645645078402    0.5785258705897388 O
   0.3689479508225653    0.3669814361629549    0.6688750636894167 O
   0.1072290517414207    0.3705764248460724    0.6103773957346132 O
   0.1103586221526693    0.3788128584307084    0.8636304782800759 O
   0.3679651834066806    0.3904982863264634    0.9152561199265637 O
   0.3833661188205911    0.1354187013054459    0.8460519924192557 O
   0.1350199113449025    0.1190105027857588    0.8958228205977400 O
   0.1510881095734607    0.6245086313622233    0.1492709585297249 O
   0.3847849096681165    0.6516488852140766    0.0724256139557034 O
   0.3764838074413866    0.8899400984690599    0.1546510696623536 O
   0.1257448601494404    0.8758344955733276    0.1175653607520561 O
   0.1413358821856772    0.8687983512041053    0.3462287241096525 O
   0.3859871585379431    0.8444721631719315    0.4067213726023122 O
   0.3818189705202261    0.6117561708425407    0.3381758382886965 O
   0.1314376604270241    0.6108488501746098    0.4006922687684520 O
   0.1162052554113346    0.6158244164072404    0.6498065827457731 O
   0.3712583850875414    0.6158704683186728    0.6046526272340869 O
   0.3759713574333571    0.8802584186806620    0.6483857111373725 O
   0.1183608768667506    0.8736142054859279    0.6045182204615870 O
   0.1286088971924330    0.8716290740984584    0.8529912221185116 O
   0.3710663388093214    0.8776070043041680    0.9004646545186699 O
   0.3767121073447293    0.6319308279354654    0.8330874990812477 O
   0.1199099848211914    0.6178350233199372    0.9076093345670934 O
   0.6203159476424485    0.1070174089121057    0.1601953490584629 O
   0.8892777347898636    0.1260299900740589    0.0955389707435301 O
   0.8791982448642580    0.3679063937279383    0.1470436462863251 O
   0.6179183087003065    0.3691497953796996    0.1016852004765937 O
   0.6214515682188704    0.3686314663996088    0.3509550422854379 O
   0.8630585191914990    0.3692791326646573    0.3928563538819881 O
   0.8837799202625346    0.1080109544274803    0.3523979950039842 O
   0.6303092127102906    0.1194484858661314    0.4081000020739037 O
   0.6262105924772448    0.1192035288882587    0.6504872570496112 O
   0.8789523080557705    0.1146012770967010    0.6093722250801594 O
   0.8733398536613858    0.3680602267198210    0.6547901938906149 O
   0.6297222957809738    0.3882603593403842    0.5855063823746816 O
   0.6135639533768460    0.3722509507801900    0.8452388314451622 O
   0.8544869844549078    0.3947282035048130    0.9133542640849021 O
   0.8727117839651182    0.1398808377017267    0.8462651231586396 O
   0.6272972216474458    0.1272008844581174    0.9140166974643216 O
   0.6240843658672272    0.6335681204080366    0.1365848792291779 O
   0.8919546246897833    0.6303709418639025    0.0806067622426149 O
   0.8746851574119021    0.8775678111899139    0.1404058717857979 O
   0.6241029825926679    0.8716026187442761    0.0928355705013256 O
   0.6298418347845702    0.8738003727959387    0.3494564067706569 O
   0.8799007814906861    0.8645762726576136    0.3974857071758522 O
   0.8878491456666846    0.6109360548640019    0.3387153854809408 O
   0.6331752094042719    0.6314712886300041    0.3773496524330445 O
   0.6264457511755384    0.6341011468017125    0.6292855486005032 O
   0.8637914304814990    0.6168630340139047    0.5917255757866574 O
   0.8610116586431100    0.8628890089552712    0.6395446255964546 O
   0.6288414304696567    0.8744539180207898    0.5994856468502233 O
   0.6175322564932217    0.8811010707031860    0.8509818408607261 O
   0.8800830294897991    0.8722816395014542    0.8969787188468679 O
   0.8894227493192424    0.6258421771687136    0.8366214371778304 O
   0.6436250742826209    0.6224843068497304    0.8817801929263661 O
   0.0047003665879570    0.9957683737750429    0.0036681220848377 Zr
   0.0024872086685963    0.2550566714706001    0.2533440432381329 Zr
   0.2491659459564846    0.0045827186469679    0.2478007238837647 Zr
   0.2619487811374134    0.2542052009971552    0.0083809112586324 Zr
   0.9957193823780937    0.9979239952218166    0.5096443193495640 Zr
   0.0109151114081658    0.2618596167931725    0.7555011891655184 Zr
   0.2514626626197521    0.0031943328475901    0.7531884326161407 Zr
   0.2327038568916371    0.2524787441867798    0.5085642649139532 Zr
   0.0000387666160541    0.4938760119805679    0.0014889831443986 Zr
   0.0218953473471887    0.7443690224659915    0.2483642722883993 Zr
   0.2525914244021047    0.4900233285581985    0.2614919738481468 Zr
   0.2373159069591189    0.7537734109377247    0.9932072482274732 Zr
   0.9923193794626503    0.5004663346464374    0.5045954249066452 Zr
   0.9970813432037262    0.7607987772058411    0.7433661776237780 Zr
   0.2370062813288924    0.5153528603935019    0.7571745534967448 Zr
   0.2451045591811850    0.7467313876071764    0.4956400936105096 Zr
   0.4873866115964832    0.9951118890617082    0.9980362915825328 Zr
   0.4966342276075766    0.2453749916861031    0.2547917961935285 Zr
   0.7525064934310881    0.9893407025490137    0.2470086839686946 Zr
   0.7509319099438353    0.2473924574029655    0.0074201236386670 Zr
   0.5015764796897970    0.9949943097092639    0.5005958633572340 Zr
   0.4996148641771748    0.2502388575418746    0.7423350856640701 Zr
   0.7510210742830478    0.0044414274555181    0.7638305689216905 Zr
   0.7483314466099283    0.2393745254396407    0.5028298959397279 Zr
   0.5057711230672892    0.5062443799521154    0.9880133864872334 Zr
   0.4955456387763704    0.7443582443541161    0.2305553748148989 Zr
   0.7501666643282994    0.4934125533735198    0.2491630325425634 Zr
   0.7603029842747605    0.7593770468727987    0.0015101426099698 Zr
   0.5049147534505886    0.5079492805529174    0.4932044508645753 Zr
   0.5036713518028191    0.7474721375233674    0.7402143387950528 Zr
   0.7424466000624454    0.5017283530162898    0.7509860816268721 Zr
   0.7443033739894184    0.7593035597845449    0.4949363781454034 Zr
