1,1,1,1,1,1,1,1,1,1,1,1,1,1,1,1,1,1,1,1,1,1,1,1,1,1,1,1,1,1,1,1,1,1,1,1,1,1,1,1,1,1,1,1,1,1,1,1,1,1,1,1,1,1,1,1,1,1,1,1,1,1,1,1,1,1,1,1,1,1,1,1,1,1,1,1,1,1,1,1,1,1,1,1,1,1,1,1,1,1,1,1,1,1,1,1
1.0
   9.9616741077874558   -0.0000000000000000   -0.0000000000000000
  -0.1094547527916958   10.5242595578558920    0.0000000000000000
  -0.5081827840256598   -0.5314489432681017   11.0688517051073454
O Zr
64 32
direct
   0.1197630184303406    0.1664465425775100    0.1150378740382313 O
   0.3752331200401174    0.1055813104270301    0.1493644653886856 O
   0.3789826190815487    0.3495841219604172    0.0891079674095638 O
   0.1364341936805755    0.3732405071271253    0.1680502658682932 O
   0.1569385750196929    0.3302958983723795    0.3986687354446949 O
   0.4171482281469284    0.3430135987504015    0.3299212800109138 O
   0.4225882249662202    0.0919215688661460    0.3845957003051849 O
   0.1594815378119972    0.1094497312301677    0.3304690046495230 O
   0.1065096890873284    0.1355624856663256    0.6171071665770191 O
   0.3620718684499313    0.0534053522919449    0.6286291812807804 O
   0.3939892746001025    0.3184017985155227    0.6032848969345950 O
   0.1012059327296735    0.4073458426611564    0.6575925962529110 O
   0.1328703896068074    0.3868914931212327    0.9033616384332098 O
   0.3724573169245550    0.3918725443254031    0.8473287479108967 O
   0.3562142984835684    0.1399287229356353    0.8827705858044324 O
   0.1412815060120230    0.1624507331025598    0.8428328807671497 O
   0.1320304325507964    0.6272202381840331    0.1133155110228154 O
   0.3768360621473616    0.5762416758740885    0.1567563911981395 O
   0.3622489040792326    0.8616000090086173    0.1356374112146839 O
   0.1018848258590481    0.9019477745638796    0.1462449803038807 O
   0.1473247709616647    0.8641256530927480    0.3681196529374303 O
   0.3967621912630558    0.8251662701605317    0.3719820072302676 O
   0.3616389009020425    0.6010362846311126    0.4112022966935087 O
   0.1164243574938976    0.5973223851436673    0.3682525775026155 O
   0.1361542079940400    0.6402592966960569    0.6151642053310864 O
   0.4069109508026882    0.5869436717280698    0.6767054522596804 O
   0.3673540726486631    0.8145547164163841    0.6170892547551533 O
   0.1376753673385838    0.8791169142124405    0.6393423358481403 O
   0.1498446421391089    0.8894196177697654    0.8953211161395618 O
   0.4097262020759075    0.9225647274778566    0.8296714630536229 O
   0.1730238008413744    0.6622386541834032    0.8559613030255262 O
   0.8951049628624924    0.6287452461283594    0.9141172157299106 O
   0.6295649980362884    0.0826898346190846    0.0989799262821884 O
   0.8528251998502371    0.1502641395911536    0.1742223023830183 O
   0.8628132803126010    0.4194554641550555    0.0851161766369390 O
   0.6385986255705309    0.3501662227900049    0.1546889899346967 O
   0.6720881850279690    0.4011159205870060    0.4202779337041344 O
   0.9055827777417385    0.3986470433685872    0.3245232227244085 O
   0.9224492694650580    0.1445239519371693    0.4333271668538886 O
   0.6682299630253571    0.1238839074299693    0.3586329867594429 O
   0.6342612528074316    0.1290217891054805    0.6001286454795429 O
   0.8635108391543017    0.1277892747937602    0.6604914831162335 O
   0.8853968680841182    0.3788373344103416    0.5762116504693154 O
   0.6086690215903540    0.4059295576705804    0.6471603744582403 O
   0.6040949598867914    0.3435427813211506    0.9184235946542941 O
   0.8469820621372235    0.3744989994845508    0.8375281534960357 O
   0.8868102666265121    0.1060399673898064    0.8987281330916996 O
   0.6124791360872625    0.1223069433688166    0.8628535833028740 O
   0.6147074757819607    0.5955048835609155    0.1306616958137280 O
   0.8374413814774097    0.6758867537289294    0.1730797167348463 O
   0.8737942997073923    0.9188816167891273    0.1005869937426542 O
   0.6298334379195014    0.8495144412655323    0.0931587729216939 O
   0.6204264961314175    0.8814943871754672    0.3782511446754807 O
   0.8958948881204657    0.8923079924412886    0.3757651724235169 O
   0.8688931069677385    0.6220977509006327    0.3828431700051314 O
   0.5840399026541863    0.6224335412981625    0.3623388483061356 O
   0.6369841376617362    0.6537236255695621    0.6328676838237635 O
   0.8852207946149413    0.6398600043898474    0.6306287061718572 O
   0.8935722577073465    0.8615557500997751    0.6074046158191617 O
   0.6230329608313038    0.8706451823498309    0.6178028994231324 O
   0.6571931389230198    0.8651657373778803    0.8386999637023296 O
   0.8970119444172745    0.8671496909389084    0.8565175122118106 O
   0.6113101236864621    0.5968932661857140    0.8414093623462886 O
   0.4102255579863800    0.6600353303987836    0.9258777404770201 O
   0.0211061649690261    0.0377281743436069    0.0041344875438962 Zr
   0.0211124478104974    0.2611105692255793    0.2685073012884110 Zr
   0.2699488802875920    0.9696754462766111    0.2534764550784801 Zr
   0.2338884556959603    0.2488749060705409    0.0048792422230284 Zr
   0.0097790216902065    0.9951849325808508    0.5187495851489787 Zr
   0.9840336126153170    0.2763260113278453    0.7352827641321329 Zr
   0.2406379388305676    0.0185304890804733    0.7689060808062801 Zr
   0.2815418271584232    0.2084761465482785    0.4946581855617064 Zr
   0.0177230238344706    0.5075306867327518    0.0055114236079115 Zr
   0.9925871272363592    0.7641803843930148    0.2501297726865833 Zr
   0.2675704451780156    0.4601784682584015    0.2794485958984128 Zr
   0.2534480056184903    0.7534552969302432    0.9957253588296325 Zr
   0.9830137334767638    0.5292512258429672    0.4963136149312720 Zr
   0.9914614115867176    0.7599478859833372    0.7405243286634591 Zr
   0.2440410638276472    0.5135778002857289    0.7421495907664556 Zr
   0.2445231010466457    0.7495018220671876    0.4898559320112796 Zr
   0.4865827541859334    0.0155775060245151    0.9888245940136439 Zr
   0.5204042554280340    0.2184574919696530    0.2361576093745896 Zr
   0.7613478144193632    0.9953100120896050    0.2574830466727588 Zr
   0.7503437034268033    0.2543658968370100    0.0193609380728370 Zr
   0.4854320226327375    0.9639852904191961    0.5194858552714015 Zr
   0.5007234745936899    0.2716749776148754    0.7694123254420643 Zr
   0.7473745081284571    0.0048785794228389    0.7410070051092492 Zr
   0.7639995001654035    0.2375436640282703    0.5044031590489048 Zr
   0.4998392586243315    0.5062760429705465    0.0060882408126315 Zr
   0.5020791441159195    0.7413870478928624    0.2259101621667041 Zr
   0.7508055354882994    0.4927357042370521    0.2260543994591112 Zr
   0.7650424709064012    0.7752412622472398    0.9855439025410818 Zr
   0.5142897913766651    0.4981372150505936    0.4960949021718551 Zr
   0.4885368810903670    0.7328710571208997    0.7540307846250126 Zr
   0.7497702619526035    0.5012353384551774    0.7129316393821422 Zr
   0.7555749136568177    0.7585768220518189    0.4980482334184942 Zr
