0,0,0,0,0,0,0,0,0,0,0,0,0,0,0,0,0,0,0,0,0,0,0,0,0,0,0,0,0,0,0,0,0,0,0,0,0,0,0,0,0,0,0,0,0,0,0,0,0,0,0,0,0,0,0,0,0,0,0,0,0,0,0,0,0,0,0,0,0,0,0,0,0,0,0,0,0,0,0,0,0,0,0,0,0,0,0,0,0,0,0,0,0,0,0,0
1.0
  10.1042766567765891   -0.0000000000000000    0.0000000000000000
   0.0486548347729356   10.9410037306719836    0.0000000000000000
  -1.6874504346120411   -0.0669216762602281   10.4961731738779580
O Zr
64 32
direct
   0.0078149731146315    0.1521124993974278    0.1669200625767392 O
   0.4748911182520451    0.4138704125660582    0.0871142629082762 O
   0.4692416860922418    0.3318097741166587    0.3238045950840862 O
   0.0462502595911283    0.0818584004588075    0.4284877951226049 O
   0.2143674110549986    0.3869372544670452    0.2421157981296040 O
   0.2742449061950212    0.1428547334836763    0.0045916511095628 O
   0.2721278725480105    0.1296569036450309    0.2567339529997862 O
   0.2343092934650748    0.3687768725771875    0.4759332989314953 O
   0.0547533572625487    0.1805369053426192    0.6696655520597766 O
   0.4741640052710507    0.4062346889612720    0.5614349094835656 O
   0.4551974307895821    0.3446371787527706    0.8023103329562040 O
   0.0322659821436176    0.0891289497376365    0.9043312925250682 O
   0.2275926105794081    0.3829590023677520    0.7222175534285008 O
   0.2650708049274486    0.1204907893335162    0.5130444951214953 O
   0.2658800104735614    0.1163817427726192    0.7605399789960458 O
   0.2329198690606654    0.3714204483002786    0.9883970560450498 O
   0.0233005998911375    0.6648077091628696    0.1658528917789215 O
   0.4751349159765577    0.9061091770215025    0.0768728351689238 O
   0.4612987032604869    0.8295772301730759    0.3369300376828100 O
   0.0268371221996960    0.5795726794957492    0.4220098977905358 O
   0.2369104535312124    0.8814482147479774    0.2343082021855936 O
   0.2773781048878685    0.6266052235667664    0.9994668206225975 O
   0.2866062519733265    0.6232217521391491    0.2568315716349808 O
   0.2331455501966013    0.8620381251596303    0.4941766121398323 O
   0.0324282269002189    0.6871907474039329    0.6565315796761001 O
   0.4750042986362822    0.9131147958995651    0.5871635823366474 O
   0.4833693640015355    0.8435932414389702    0.8404915431993211 O
   0.0363837000119614    0.5848817891418461    0.9178614260077582 O
   0.2406064647012648    0.8820028978397446    0.7469529802835130 O
   0.2608546146824992    0.6363517979838417    0.5138263920246852 O
   0.2830451426852342    0.6292335240229755    0.7555841742910075 O
   0.2190579653146872    0.8716071246104419    0.9897523440023220 O
   0.5250182437178013    0.1420193673806286    0.1826527759346867 O
   0.9777436204384005    0.4054375110186645    0.0630784679265524 O
   0.9529999880479975    0.3217175968002760    0.3299630993817166 O
   0.5360155613724811    0.0847466668536506    0.4354063979883359 O
   0.7277005112496220    0.3801111199626366    0.2404591244627407 O
   0.7744387874824503    0.1264567354170994    0.9926056739640013 O
   0.7635772288600117    0.1186262521753391    0.2532547487321885 O
   0.7082508806455908    0.3478812633684706    0.4945813030237987 O
   0.5245313919751999    0.1699177313440369    0.6718766617199867 O
   0.9372627935775372    0.4289346889668875    0.5641066274931150 O
   0.9662818177551201    0.3338805273654048    0.8123091357161650 O
   0.5203852042641642    0.1089684652395003    0.9254965307523565 O
   0.7405380930132972    0.3778618370470230    0.7493109917787497 O
   0.7848978131148137    0.1253110904697026    0.4958892032911232 O
   0.7685056355158026    0.1200449425104855    0.7567300086537572 O
   0.7182796693830801    0.3717994658449674    0.9917521045581251 O
   0.5240327087093610    0.6652611936306265    0.1774496074755461 O
   0.9742318910599059    0.8956809438585869    0.0804772377138584 O
   0.9743231222041954    0.8389180553382755    0.3410091701142904 O
   0.5421959668008447    0.5675567733670440    0.4224193274396859 O
   0.7352140824187199    0.8748177945934831    0.2607732797618022 O
   0.7824552664461579    0.6308507928104680    0.0292771123827090 O
   0.7791416659653444    0.6324203263907375    0.2831222625114200 O
   0.7343631050016060    0.8676689700949156    0.4943282527495701 O
   0.5500626050828741    0.6735909871252141    0.6770343379895370 O
   0.9614422274035093    0.9295280692330754    0.5890638287378442 O
   0.9682678385171747    0.8412112546456800    0.8220198213166716 O
   0.5405362135279451    0.5799087353466719    0.9253790092824298 O
   0.7330848900585215    0.8840898810580732    0.7369323791884627 O
   0.7764886139920680    0.6127715607739264    0.5169094351837420 O
   0.7845813457551373    0.6089556083808729    0.7613218758992356 O
   0.7252496370528683    0.8755280944623839    0.9969363179374757 O
   0.1445893209371680    0.0219918642994541    0.1026225481569522 Zr
   0.3573329605048295    0.2705387727172794    0.1446232062917801 Zr
   0.3645116450874952    0.4766422088519215    0.3921376452461204 Zr
   0.1315339517552994    0.2280372544266850    0.3602210877207810 Zr
   0.1323946531896945    0.0171918028993058    0.6259409297429329 Zr
   0.3609325432370941    0.2658177608096723    0.6306597959887059 Zr
   0.3608558274583422    0.4854455356008306    0.8896562724345707 Zr
   0.1335935847882847    0.2346867686649881    0.8487881801123557 Zr
   0.1267157700482498    0.5245769483150423    0.0906466361633472 Zr
   0.3591214607741303    0.7760603356747717    0.1422140160868268 Zr
   0.3641530542237506    0.9776862094715580    0.4041902305269005 Zr
   0.1412113954559994    0.7134432014625036    0.3452968083758239 Zr
   0.1265631096471414    0.5364257812293246    0.5963766971927043 Zr
   0.3687719150013778    0.7685955041212537    0.6464645386365170 Zr
   0.3755213093984692    0.9891235648961358    0.9020263552494323 Zr
   0.1484648974569401    0.7445942423895494    0.8504050481288092 Zr
   0.6453784015541917    0.0142286876998781    0.1105296582555688 Zr
   0.8552195462332534    0.2803340370462033    0.1420832260667635 Zr
   0.8497240070863750    0.4713073222000924    0.3972014938907177 Zr
   0.6303528961800005    0.2232379567878426    0.3442400628728434 Zr
   0.6432973946259830    0.0254543852301653    0.5979556550495778 Zr
   0.8672211955538731    0.2586727551267317    0.6469706391754468 Zr
   0.8572418589690012    0.4664889304717931    0.8996408588894528 Zr
   0.6346034018732375    0.2328489632265376    0.8510059240476342 Zr
   0.6355362320856077    0.5298383227551807    0.1222372611470519 Zr
   0.8634296783769684    0.7748812760794193    0.1465139751530819 Zr
   0.8701929869594872    0.9847223788787913    0.3983416417333412 Zr
   0.6318395564596850    0.7305849140453740    0.3703468895000911 Zr
   0.6444041667852983    0.5097255709338926    0.6042383150922033 Zr
   0.8580230214848464    0.7712276233969736    0.6430602069236097 Zr
   0.8634911341224671    0.9724735249363170    0.8968696267348243 Zr
   0.6424548081126472    0.7260099718748988    0.8606673264483088 Zr
