2,2,2,2,2,2,2,2,2,2,2,2,2,2,2,2,2,2,2,2,2,2,2,2,2,2,2,2,2,2,2,2,2,2,2,2,2,2,2,2,2,2,2,2,2,2,2,2,2,2,2,2,2,2,2,2,2,2,2,2,2,2,2,2,2,2,2,2,2,2,2,2,2,2,2,2,2,2,2,2,2,2,2,2,2,2,2,2,2,2,2,2,2,2,2,2
1.0
  10.5554514175308576   -0.0000000000000000    0.0000000000000000
   0.2612056475639842   10.5627475747980437   -0.0000000000000000
  -0.0044417966685335   -0.0596053695681995   10.1549680982007207
O Zr
64 32
direct
   0.1377368066858060    0.1345024613991124    0.1266062470967093 O
   0.1799094691131811    0.3477039377818750    0.2986179480502058 O
   0.1201795497788000    0.1082909549890809    0.3799622810418930 O
   0.1795724722052937    0.4056997750799385    0.0354141503865207 O
   0.4174690553712013    0.3973335241299535    0.1925470989068342 O
   0.4196358388644745    0.3454388768830569    0.4443685666131776 O
   0.3716654369955993    0.1132961002642032    0.3660582957181955 O
   0.3800678443899724    0.1360923200911735    0.1193883830137106 O
   0.1225280222470082    0.1416049611227713    0.6302084250302984 O
   0.1901282187387911    0.3174245887198398    0.8059432737312211 O
   0.1276344528208001    0.0965897732825564    0.8782280735751575 O
   0.1662121547471701    0.4056030634705292    0.5716323537765250 O
   0.4334669079634303    0.4211349473468104    0.6836822293937226 O
   0.4202999777928971    0.3421417636813768    0.9289398482671180 O
   0.3931870513592241    0.1105992444991370    0.8725191838337637 O
   0.3712412278135884    0.1552532914262591    0.6150144182931095 O
   0.1132069161014600    0.6307980904617266    0.1340620210851489 O
   0.1894011390517041    0.8297361924898393    0.3077466741184270 O
   0.1286743074448375    0.6062888064662229    0.3831309375939211 O
   0.1755160285762370    0.8977009117360718    0.0678316964306415 O
   0.4391583451473173    0.9087165357087461    0.1853282869725073 O
   0.4327212737743596    0.8538619762946427    0.4298446885592295 O
   0.3767883873692227    0.6135885504433117    0.3682440336826439 O
   0.3715562394722241    0.6434321849669346    0.1171325042873108 O
   0.1327003314724657    0.6514030424040244    0.6295809495189643 O
   0.1863752578252581    0.8204058960052361    0.8185221672604516 O
   0.1286636963913672    0.5986558069410141    0.8768129362097782 O
   0.1787966889095584    0.9133243737385098    0.5786549611259894 O
   0.4310506815145061    0.9158170664013562    0.6785970237681973 O
   0.4073459965616645    0.8449298862333967    0.9273417761960815 O
   0.3736122259587195    0.6121257338882686    0.8629753002525664 O
   0.3738164111051330    0.6597594076980058    0.6051918673372209 O
   0.6270917187101149    0.1456906001103480    0.1274953287179110 O
   0.6633801835004730    0.3499896589327264    0.3280543219126667 O
   0.6191627244092375    0.1119260400613922    0.3822342731916358 O
   0.6718660569369571    0.4263925548437801    0.0535712253981763 O
   0.9332513436178288    0.4055469673215285    0.1796829030633094 O
   0.9242331226430214    0.3407215469176246    0.4361886365930411 O
   0.8758158383453499    0.0962514114922746    0.3715785636656578 O
   0.8823432657868985    0.1574021222138501    0.1191210898254158 O
   0.6233321533697828    0.1381305346322292    0.6404110631083400 O
   0.6814818566280322    0.3393868915611979    0.8106038433501829 O
   0.6330803356658131    0.1078512452069275    0.8759892561135814 O
   0.6765021243203666    0.4056355914836167    0.5648504998667917 O
   0.9246869729481414    0.3899114565922321    0.6752899813752281 O
   0.9164702029675751    0.3460035490082199    0.9301720509366879 O
   0.8796101701457101    0.1008767726821575    0.8626445012320756 O
   0.8728006463734032    0.1459438068736481    0.6098751853191282 O
   0.6158801230139980    0.6410143746013699    0.1415310649429469 O
   0.6814432869496719    0.8378895051721219    0.3209369297454963 O
   0.6180154739345682    0.6111786249449476    0.3942150745120808 O
   0.6756257562037401    0.9148808300805507    0.0710503045822310 O
   0.9247770688266590    0.9166835601831560    0.1981630995233309 O
   0.9332700429271295    0.8443070594788740    0.4467827359894796 O
   0.8676450457152203    0.6085498967528796    0.3650166105452135 O
   0.8692537514409080    0.6345169583073149    0.1257114783970804 O
   0.6304243635454145    0.6410566479852263    0.6411551239588451 O
   0.6677529430712508    0.8530329565033824    0.8227400917763926 O
   0.6128366521444752    0.6156021264584626    0.8766072531411755 O
   0.6713976875012223    0.9087085662157055    0.5692940122504491 O
   0.9357098531380098    0.9155085525420842    0.6999766878892957 O
   0.9290842113675409    0.8328891526363537    0.9523185242613896 O
   0.8709630284664243    0.5997715677251075    0.8658207405651873 O
   0.8696428817197910    0.6405194733072224    0.6147158461094571 O
   0.5075344850597671    0.0138529317876800    0.0129075895298208 Zr
   0.2607071361130205    0.0027374651256985    0.2369680050621106 Zr
   0.2434287723860958    0.2412268407351352    0.4778664700443338 Zr
   0.4941887570238180    0.2409814593680789    0.2680403649404157 Zr
   0.5002872135681050    0.0088162459830731    0.5192561576371950 Zr
   0.2490960578404194    0.0014132028214707    0.7356688599173121 Zr
   0.2513600281947778    0.2299508705605904    0.9709153060507348 Zr
   0.5064838163823204    0.2423366217927475    0.7667241585307936 Zr
   0.4906154622733579    0.5056222521720091    0.0036720314864019 Zr
   0.2510404932474050    0.5146911877241604    0.2359215806423349 Zr
   0.2503392818215195    0.7494666041080659    0.4848359978966705 Zr
   0.4995366232634785    0.7450469873574479    0.2660261874952276 Zr
   0.5070582548580829    0.5099718211562256    0.5252730980459813 Zr
   0.2507332653352365    0.5111644152117765    0.7311580503059933 Zr
   0.2476787657194780    0.7339956967340883    0.9830572415652191 Zr
   0.4952672987362906    0.7445303982720317    0.7549007000089225 Zr
   0.0004370221531727    0.9981518034377288    0.0270624702748887 Zr
   0.7587474218538752    0.0132758812244659    0.2394627415354323 Zr
   0.7435797531542944    0.2399395787124561    0.4785593470806729 Zr
   0.0127830137870113    0.2376381297335140    0.2550083999534013 Zr
   0.0039926843233492    0.0073965720802306    0.5170268186495117 Zr
   0.7530303722326943    0.0156337491761217    0.7314300827410819 Zr
   0.7420487349981443    0.2489907139043117    0.9779388612515273 Zr
   0.0034230820078485    0.2465010037606279    0.7615811341613469 Zr
   0.0053772857793241    0.4987847779782666    0.0236870880315833 Zr
   0.7466194492137554    0.5089980606950172    0.2337661738219159 Zr
   0.7505649097180679    0.7492773575885552    0.4906643165115253 Zr
   0.9924028128727310    0.7452825577544115    0.2682659528081320 Zr
   0.9909800276211562    0.5114414305126925    0.5169377209200801 Zr
   0.7599968673934652    0.5063120480008728    0.7361380447787441 Zr
   0.7403151301965165    0.7362055263147080    0.9958626708233417 Zr
   0.0014979502155353    0.7398357322169342    0.7744699740606263 Zr
