2,2,2,2,2,2,2,2,2,2,2,2,2,2,2,2,2,2,2,2,2,2,2,2,2,2,2,2,2,2,2,2,2,2,2,2,2,2,2,2,2,2,2,2,2,2,2,2,2,2,2,2,2,2,2,2,2,2,2,2,2,2,2,2,2,2,2,2,2,2,2,2,2,2,2,2,2,2,2,2,2,2,2,2,2,2,2,2,2,2,2,2,2,2,2,2
1.0
  10.6394320793401320    0.0000000000000000   -0.0000000000000000
   0.0263416111063020   10.6433025041689131   -0.0000000000000000
  -0.2701495377668229   -0.0386408965008660   10.5420362939230738
O Zr
64 32
direct
   0.1164832866353058    0.1468999254699006    0.1399744184480388 O
   0.1767369370385993    0.3351332118668490    0.3200338634050067 O
   0.1215188893904863    0.1220659434933177    0.3739775461950016 O
   0.2005236735291304    0.4199236825307439    0.0688970075846430 O
   0.4280026561641959    0.4095189765853232    0.1903401411790512 O
   0.4182433948491800    0.3493509839159183    0.4204929185792411 O
   0.3718134401679277    0.1015663950340733    0.3708696485662592 O
   0.3728051517436729    0.1538288401054969    0.1303509070531405 O
   0.1190159312065070    0.1444400299240979    0.6275341358304257 O
   0.1657683894406848    0.3397477856596304    0.8278507176009997 O
   0.1210888512191773    0.1038342819187637    0.8941711345590616 O
   0.1854751699178201    0.4113984027371401    0.5748956565434705 O
   0.4076932256508210    0.3888983480151776    0.6743058199104955 O
   0.4247883823770651    0.3417059555591778    0.9299687053488283 O
   0.3724281244342935    0.1043378515553406    0.8651644052257286 O
   0.3801851341885082    0.1369692002637759    0.6116598345726633 O
   0.1358323811535510    0.6479837333601692    0.1379021714180610 O
   0.1751815150925498    0.8565965793136187    0.3174792585593068 O
   0.1214609944223444    0.6203496622133843    0.3811003633345408 O
   0.1814507990657252    0.9186706439693790    0.0584603922351566 O
   0.4133351190997824    0.9035863391465432    0.1852943000704731 O
   0.4412794593389022    0.8315010035850325    0.4462262353347886 O
   0.3714536816976886    0.6147898159381827    0.3646377746978425 O
   0.3874803752371390    0.6403201344505729    0.1171626767887328 O
   0.1317496718443351    0.6410989735882213    0.6196423835844239 O
   0.1665601906755933    0.8427858544616649    0.8135086117701598 O
   0.1286606559381834    0.6055288584073536    0.8855671951804536 O
   0.1715701181324891    0.8926819447184065    0.5769537165704983 O
   0.4280439368022534    0.9077445599495030    0.6875574187482389 O
   0.4061369320385136    0.8507671104298861    0.9278434935419864 O
   0.3748536810058858    0.6087685826809588    0.8728405151483103 O
   0.3766735360171147    0.6325462662527188    0.6196017142025279 O
   0.6149603712628914    0.1372800979674040    0.1343733929389503 O
   0.6846979840827503    0.3417837890008636    0.3139230518877731 O
   0.6159640472059273    0.0999548913645310    0.3839160088770544 O
   0.6697932490629619    0.4001745592038241    0.0756022541735537 O
   0.9414627727451439    0.4147385311960490    0.1751666774629181 O
   0.9158668591385360    0.3454424653134296    0.4303046441051365 O
   0.8668338798063132    0.0989870113722786    0.3656355933266840 O
   0.8655401069119207    0.1485601156666645    0.1169498718677999 O
   0.6282824152306112    0.1420048273392084    0.6371377854268856 O
   0.6849823967018831    0.3403123285925946    0.8218912340298592 O
   0.6097654099235633    0.0980221618118549    0.8796814839791207 O
   0.6707842757822293    0.3947877000299185    0.5729567672691296 O
   0.9358580495292911    0.4172001762144007    0.6789213221762246 O
   0.9197362985873444    0.3424298283705624    0.9271464392068353 O
   0.8664685142092917    0.1059036180681096    0.8675203921344737 O
   0.8786877014446998    0.1411344152924063    0.6146599110491816 O
   0.6349612023056503    0.6463304323952226    0.1400519740148386 O
   0.6783530488562142    0.8448523449514574    0.3088658611882180 O
   0.6348093966586327    0.6055407698494800    0.3881191424998766 O
   0.6568770616219393    0.8989736477824921    0.0630091210540512 O
   0.9262268098464904    0.9108457157109748    0.1823594837657868 O
   0.9228682741108777    0.8422941795081438    0.4214349350192456 O
   0.8823166674203207    0.6110071901877168    0.3651778262914119 O
   0.8855134910557210    0.6450862850129595    0.1037947446007896 O
   0.6219757044061215    0.6462290202071753    0.6385990458864877 O
   0.6877911496217082    0.8376154786506605    0.8163611434975770 O
   0.6306179085825866    0.6000545742833390    0.8884906618846770 O
   0.6835434948662963    0.9120140557617781    0.5654991370629692 O
   0.9209092360532265    0.9026381182413685    0.6668737262887762 O
   0.9312567440607158    0.8333646691153480    0.9413636994800140 O
   0.8806919335613124    0.6046751671667755    0.8588587589875043 O
   0.8686450311697040    0.6444036086666677    0.6144650763187051 O
   0.4941728323261995    0.0109527118688866    0.0170205590739080 Zr
   0.2427454255945977    0.0170618214841473    0.2318597998290895 Zr
   0.2588457910632763    0.2424716315044580    0.4941338247908342 Zr
   0.4954802838409118    0.2487416338885109    0.2681227040481128 Zr
   0.5009087742229313    0.0082339920439576    0.5129855033336752 Zr
   0.2503145737216659    0.9917879460847114    0.7501277401082816 Zr
   0.2364576726442801    0.2390272281970224    0.9918873707565991 Zr
   0.4991801731044208    0.2383604513540298    0.7591582351232606 Zr
   0.4970619537290907    0.4948405320357957    0.0171316905353578 Zr
   0.2469213575726775    0.5060634528861317    0.2392143378745231 Zr
   0.2582223994236931    0.7453031592949086    0.4861219559976404 Zr
   0.5013634596673208    0.7492372965646937    0.2617319358396182 Zr
   0.5172669011964888    0.5155101205002436    0.5182422577646901 Zr
   0.2503164487261361    0.5134643477607705    0.7322578016023220 Zr
   0.2583407941914410    0.7393136190482439    0.9905658809313336 Zr
   0.5028141375951537    0.7401209184566709    0.7749710594061835 Zr
   0.9978265543252882    0.0072371720501783    0.0180658568506148 Zr
   0.7488365342064637    0.0145604314405913    0.2251682673363903 Zr
   0.7436678081053169    0.2353086419980277    0.4884107911360575 Zr
   0.9942494275942902    0.2455314167237113    0.2742127079629170 Zr
   0.0054383546899628    0.9973356630539554    0.5090178738137398 Zr
   0.7604660292935632    0.0032839685385053    0.7249883855271586 Zr
   0.7378896122905886    0.2403746549598950    0.9845101335197257 Zr
   0.0020900366872440    0.2485418690628915    0.7686616299709669 Zr
   0.0039055366216917    0.5032457135875796    0.0057174304678447 Zr
   0.7577206375408753    0.5063811313624954    0.2352646785545299 Zr
   0.7563770432328594    0.7561464909555274    0.4790246754520280 Zr
   0.9970367256061794    0.7411370108028565    0.2550318911489434 Zr
   0.9983951004838364    0.5109524811563970    0.5108186763409464 Zr
   0.7518042538881521    0.5079526912112463    0.7287678009066112 Zr
   0.7498853763972771    0.7420043168492158    0.9856734670881245 Zr
   0.0017861440829940    0.7430213275561932    0.7626255366275317 Zr
