0,0,0,0,0,0,0,0,0,0,0,0,0,0,0,0,0,0,0,0,0,0,0,0,0,0,0,0,0,0,0,0,0,0,0,0,0,0,0,0,0,0,0,0,0,0,0,0,0,0,0,0,0,0,0,0,0,0,0,0,0,0,0,0,0,0,0,0,0,0,0,0,0,0,0,0,0,0,0,0,0,0,0,0,0,0,0,0,0,0,0,0,0,0,0,0
1.0
  10.6593912003988525   -0.0000000000000000    0.0000000000000000
  -0.0911412278605134   10.4106461590770394    0.0000000000000000
  -1.7716440511450771    0.4691815129235757   10.7558153369823302
O Zr
64 32
direct
   0.0171247292915019    0.1486413016259684    0.1744949907281105 O
   0.4788579050275237    0.4150788582380112    0.0716446037289628 O
   0.4598145968699054    0.3317626581607271    0.3308709429459635 O
   0.0382401773550823    0.0862183588170339    0.4221552874181201 O
   0.2185219294134519    0.3767374142389832    0.2372965283277244 O
   0.2695992669558180    0.1231441791229895    0.0090516345669537 O
   0.2723153524353641    0.1217920444880752    0.2644617605900678 O
   0.2285809747626600    0.3809767202303504    0.4883562815772270 O
   0.0392980706743388    0.1671115374468332    0.6725800191387095 O
   0.4649644821760413    0.4185903863715530    0.5820095985727767 O
   0.4608283784554258    0.3352205605641121    0.8359288499576043 O
   0.0331403707608108    0.0831113219405464    0.9269974011842205 O
   0.2290667405966851    0.3970194338697879    0.7439629030340935 O
   0.2725010516471656    0.1356351453184781    0.5120612168993627 O
   0.2754088115863907    0.1253399615196451    0.7681355488219064 O
   0.2217868364982512    0.3567589545859031    0.9872369881704529 O
   0.0304429934475051    0.6585559812002360    0.1774200823938090 O
   0.4591100611391328    0.9130809634836284    0.0778461403033825 O
   0.4626281112427206    0.8437045820841108    0.3170069400295805 O
   0.0499565979963683    0.5758679683203402    0.4229481136923571 O
   0.2125922800254387    0.8745307621520610    0.2461963360132343 O
   0.2755130095384544    0.6164827605072110    0.0131558889648714 O
   0.2835156534535739    0.6158517004928880    0.2525408474948850 O
   0.2297587836019323    0.8768845489458748    0.4924211798606394 O
   0.0357195394016256    0.6678025903392972    0.6626658881445344 O
   0.4623143965512029    0.9185124845098819    0.5878445718252654 O
   0.4647115189779042    0.8335865547315648    0.8269900663984051 O
   0.0487675191112051    0.5758603075009299    0.9171944940222254 O
   0.2185424684741449    0.8826924077325038    0.7415682634746507 O
   0.2827820004171154    0.6240095156585131    0.5185255078918767 O
   0.2703745643837887    0.6170094418422926    0.7596559200497013 O
   0.2267056806402687    0.8650686924729613    0.9989012308865425 O
   0.5303492546526024    0.1548149645486234    0.1705242049195116 O
   0.9728725016136640    0.4052490692180690    0.0666514142479813 O
   0.9714042110071106    0.3355777462675211    0.3267689700580227 O
   0.5357849776400919    0.0741359058155379    0.4179905728803037 O
   0.7216946269097039    0.3708558200709651    0.2407197506634037 O
   0.7623114643063033    0.1303587558905355    0.0120101884471589 O
   0.7718228368914504    0.1160234474056472    0.2632677680197562 O
   0.7224624845780001    0.3848693741388228    0.4780371817672502 O
   0.5263310474855795    0.1782331321569701    0.6616344534877999 O
   0.9745196600503132    0.4051379873353212    0.5653260240339871 O
   0.9837063233882222    0.3507116951903328    0.8223918641189416 O
   0.5234615912281293    0.0821091909944505    0.9100894777119101 O
   0.7303618030631160    0.3780253895155447    0.7276053949337953 O
   0.7624811989216008    0.1272551663897729    0.5117503605490771 O
   0.7837146588763224    0.1269171327358423    0.7574875306743457 O
   0.7404979671483417    0.3588187574268633    0.9875126711667762 O
   0.5443329764600769    0.6739695500380128    0.1766947509191067 O
   0.9695090212919480    0.8994485351805148    0.0747099134769498 O
   0.9611461770080821    0.8255733375368506    0.3338578256409033 O
   0.5424509774589235    0.5910852286519992    0.4293173415801259 O
   0.7382939547851700    0.8774504919890060    0.2312970959110923 O
   0.7765586080435983    0.6184563791280097    0.0062297814252731 O
   0.7842566545677385    0.6115970728669867    0.2540076711717246 O
   0.7279196167959858    0.8841958435580821    0.4810021999458672 O
   0.5464251657809162    0.6695444691660737    0.6762637143732091 O
   0.9685975939354149    0.9135386974503202    0.5761337481867350 O
   0.9730431284473152    0.8408250715578760    0.8244832523768504 O
   0.5331157541601770    0.5817112583961548    0.9148331265475841 O
   0.7258541881401139    0.8807896516883830    0.7363435953449571 O
   0.7932785006873555    0.6305307882634246    0.5145699321807808 O
   0.7780395374584396    0.6252773812843767    0.7677629014609744 O
   0.7286314063047241    0.8719337443462192    0.9932544825743833 O
   0.1331492292064440    0.0128829616624150    0.1044515459406540 Zr
   0.3572073909631662    0.2702970305034009    0.1440367725887953 Zr
   0.3629401780853266    0.4880395455591469    0.3951431067514415 Zr
   0.1386855994417674    0.2298938684515697    0.3568516889466105 Zr
   0.1352840808291693    0.0282991160262659    0.6058133995193845 Zr
   0.3639235462730329    0.2808632157950905    0.6410266740535551 Zr
   0.3547749735374858    0.4831193842319310    0.9045368418838616 Zr
   0.1354376486669037    0.2283511709290676    0.8514916305145047 Zr
   0.1391888880472618    0.5188685984333513    0.1071076090381462 Zr
   0.3698568152605600    0.7701789093274932    0.1511484433086331 Zr
   0.3491387285615069    0.9821815553747034    0.3912322107029229 Zr
   0.1378783815924899    0.7260822746872037    0.3551586150856837 Zr
   0.1443939309382842    0.5230964131895701    0.6027960966294388 Zr
   0.3664101275760335    0.7798363299171460    0.6567463087351446 Zr
   0.3508629337842434    0.9712936156571184    0.8962787101367875 Zr
   0.1327716005127268    0.7338867345487867    0.8454769880003695 Zr
   0.6408410435394151    0.0227380313865202    0.1065438848377918 Zr
   0.8612518222836371    0.2620147270207708    0.1530962862794922 Zr
   0.8683538730847824    0.4836882000788496    0.3914755722443766 Zr
   0.6350676850550883    0.2203982826851792    0.3567071930296291 Zr
   0.6306982183244793    0.0212428309437618    0.6041535977432592 Zr
   0.8540562890931372    0.2737520600949574    0.6349683025160718 Zr
   0.8662436622868250    0.4716425190213541    0.8968576444346450 Zr
   0.6278169800167787    0.2305210980472942    0.8492918703142111 Zr
   0.6352414913964261    0.5203710766502150    0.1095336194225269 Zr
   0.8584066621382720    0.7630237039134271    0.1357187510909382 Zr
   0.8711056738666412    0.9743770955072921    0.3937722968092789 Zr
   0.6447778646351905    0.7316526480679665    0.3641934123702626 Zr
   0.6496651464089535    0.5270043887428741    0.6099790646778356 Zr
   0.8691781488034412    0.7727347502328259    0.6442759309071786 Zr
   0.8610057838359615    0.9825454443055222    0.8956569974455137 Zr
   0.6370732749330255    0.7260506738004060    0.8531333703033318 Zr
