0,0,0,0,0,0,0,0,0,0,0,0,0,0,0,0,0,0,0,0,0,0,0,0,0,0,0,0,0,0,0,0,0,0,0,0,0,0,0,0,0,0,0,0,0,0,0,0,0,0,0,0,0,0,0,0,0,0,0,0,0,0,0,0,0,0,0,0,0,0,0,0,0,0,0,0,0,0,0,0,0,0,0,0,0,0,0,0,0,0,0,0,0,0,0,0
1.0
  10.6563169313425483    0.0000000000000000   -0.0000000000000000
   0.3710432772982841   10.4041839507252423   -0.0000000000000000
  -1.2739582465030697   -0.0041085818811426   10.7641336708946245
O Zr
64 32
direct
   0.0509895154217435    0.1868354961697588    0.1812247623953811 O
   0.4539229063089901    0.4036200314764271    0.0640694005561046 O
   0.4708435013140780    0.3496281592299621    0.3199926690072148 O
   0.0310198376153231    0.0851002471138769    0.4303105490156027 O
   0.2337097371421774    0.3848241479333430    0.2463390797319613 O
   0.2526397558892413    0.1193661774710556    0.0151614122780060 O
   0.2797360876079210    0.1432275573563811    0.2655799203729515 O
   0.2230852564155138    0.3741309586580349    0.4956011096484854 O
   0.0234755609126976    0.1450888194289877    0.7034478602002235 O
   0.4634397479539656    0.4110154461438547    0.5687316542949619 O
   0.4668358753859782    0.3530528814557253    0.8249657173722152 O
   0.0102652812724517    0.0878468972448236    0.9403122165667769 O
   0.2236102918383879    0.3860048562354767    0.7394052826583405 O
   0.2770664946643172    0.1185023609659437    0.5021391673827824 O
   0.2703043793843022    0.1264590177384355    0.7673815369679893 O
   0.2256325951438388    0.3534938573981506    0.9757816535668348 O
   0.0435415642275623    0.6752239847710740    0.1556590615583412 O
   0.4825815832457455    0.8975560355714086    0.0813836935218208 O
   0.4774883692301778    0.8489293705881580    0.3171111858755192 O
   0.0314564530396240    0.6069834354259313    0.4208985885088376 O
   0.2404313512782369    0.8924714493640630    0.2457004346714128 O
   0.2722175099040200    0.6164348288312258    0.0019700943381389 O
   0.2815489195195998    0.6164691905883780    0.2506759913708633 O
   0.2417936964524874    0.8811578393928662    0.5043412610323711 O
   0.0379245330586733    0.6639046478406563    0.6797924092661181 O
   0.4779258330239361    0.9049352238455309    0.5668176142031234 O
   0.4732798028837623    0.8326676669550884    0.8265064248928624 O
   0.0301784308649372    0.5792601753520614    0.9159034676852550 O
   0.2298374671434041    0.8830906884759945    0.7556594627205115 O
   0.2770185677578964    0.6294207111930951    0.5045212945082874 O
   0.2792662534068434    0.6268502605324121    0.7528774717758088 O
   0.2337094713760351    0.8545856983208338    0.9930553916106831 O
   0.5348548463023537    0.1442097310349809    0.1880973033784077 O
   0.9592279742545932    0.4128299380444927    0.0725997655726855 O
   0.9690968458248301    0.3522062458329695    0.3290701462652503 O
   0.5372762728112934    0.1038537511438351    0.4461932915870995 O
   0.7205901817491485    0.3770822521746016    0.2218289435829299 O
   0.7544711748818197    0.1254310283778272    0.0040363006098185 O
   0.7901784699862290    0.1264322919318867    0.2581445379030728 O
   0.7319797786542118    0.3858779086189895    0.4723540504377089 O
   0.5250856556547560    0.1569245372802868    0.6917646352844976 O
   0.9679198899374882    0.4202902582642249    0.5826387663837658 O
   0.9653250645296401    0.3348745551320246    0.8269451380438121 O
   0.5196403797431222    0.1042231400822418    0.9269774214138594 O
   0.7232214112202685    0.3648380111601944    0.7249258536336499 O
   0.7853766418941284    0.1286419440934656    0.5100985420170515 O
   0.7759314747992605    0.1231058825165870    0.7605175238890937 O
   0.7175123044769303    0.3711013966824633    0.9720199014985297 O
   0.5274466811869344    0.6527179854869136    0.1768148898267832 O
   0.9444102667543441    0.9268475282523033    0.0808312750196167 O
   0.9759994503983573    0.8430811896799137    0.3218583843182670 O
   0.5456608846866793    0.5758717238780098    0.4286542410538939 O
   0.7279006121861207    0.8676908923622816    0.2418268723509503 O
   0.7638123563406853    0.6316227274131359    0.0106873530390151 O
   0.7924973664653796    0.6296851058611030    0.2529747345634442 O
   0.7439027061929367    0.8758814000106563    0.4918042984373326 O
   0.5400382488935059    0.6646720605174534    0.6587720798724201 O
   0.9778791264722643    0.9010590262552229    0.5712796017228313 O
   0.9648761952898982    0.8420092936139915    0.8346685740714408 O
   0.5218396024622571    0.5957032327219092    0.9456070957872114 O
   0.7194432910617036    0.8809134890865864    0.7426316720234136 O
   0.7841849473386541    0.6236756155722286    0.5131496356307255 O
   0.7708984491884745    0.6133861769834188    0.7545404125518418 O
   0.7211652189895722    0.8597132367354797    0.9886587846707334 O
   0.1238068759525505    0.0228078141378493    0.1076488717836309 Zr
   0.3510942665462861    0.2751585861185914    0.1500439122627290 Zr
   0.3674740587835606    0.4784714019296806    0.3922590529804407 Zr
   0.1398077131574411    0.2317949976099518    0.3582459920324925 Zr
   0.1267154438951638    0.0164327528813684    0.6082262607535852 Zr
   0.3669600424673596    0.2687329367254607    0.6415466666000680 Zr
   0.3574640740206709    0.4746162031873040    0.8935158314232119 Zr
   0.1419514779199985    0.2251144984786229    0.8597709255993314 Zr
   0.1236507065970866    0.5096127027748055    0.0964496526559498 Zr
   0.3598481689372833    0.7666148164314134    0.1433760409138186 Zr
   0.3654353829006389    0.9896073766422094    0.4024044130102296 Zr
   0.1418294792578370    0.7451177166440743    0.3589130634308546 Zr
   0.1481069310975449    0.5234194494472121    0.6076330978298226 Zr
   0.3700377223729063    0.7721470600350112    0.6441827356760889 Zr
   0.3567834547051259    0.9818950701766306    0.9041899213419086 Zr
   0.1528321897221880    0.7313567856598998    0.8469733882394529 Zr
   0.6350331848290867    0.0040677016414243    0.1008682426283694 Zr
   0.8542325871306307    0.2687634805049970    0.1381560177128869 Zr
   0.8730175965031638    0.4867945841564665    0.3890288734450439 Zr
   0.6288540371831445    0.2358907286765050    0.3567801405406382 Zr
   0.6402196989025000    0.0234010317681858    0.6088194236680577 Zr
   0.8721918504908898    0.2746460231752010    0.6462957601326228 Zr
   0.8556935847836471    0.4756527829917549    0.8949551516763496 Zr
   0.6459384085556029    0.2198332866353531    0.8496881035145905 Zr
   0.6405518648788771    0.5191032304012445    0.1018688497305576 Zr
   0.8636441374970679    0.7653749295326931    0.1465692662165608 Zr
   0.8586490445619031    0.9835081639778629    0.3930066656677264 Zr
   0.6359088402596806    0.7312584728361807    0.3567810880855417 Zr
   0.6520403204283491    0.5161433464469299    0.6022718904847261 Zr
   0.8604489749954731    0.7716077712781710    0.6493373782972622 Zr
   0.8481608659602555    0.9771130583619985    0.8920405044823230 Zr
   0.6299681691177649    0.7243603492212849    0.8552947249153617 Zr
