0,0,0,0,0,0,0,0,0,0,0,0,0,0,0,0,0,0,0,0,0,0,0,0,0,0,0,0,0,0,0,0,0,0,0,0,0,0,0,0,0,0,0,0,0,0,0,0,0,0,0,0,0,0,0,0,0,0,0,0,0,0,0,0,0,0,0,0,0,0,0,0,0,0,0,0,0,0,0,0,0,0,0,0,0,0,0,0,0,0,0,0,0,0,0,0
1.0
  10.3544765162216681    0.0000000000000000    0.0000000000000000
   0.1054916854896577   10.1829002999401350    0.0000000000000001
  -1.2692837758977409    0.4827603059573446   10.8667881188709394
O Zr
64 32
direct
   0.0385352759766833    0.1813955279698068    0.1533098179679145 O
   0.4740650827116424    0.3964964488731333    0.0631179075175769 O
   0.4482122340046585    0.3346809683248962    0.3105693260402552 O
   0.0306522508880328    0.0872265810553716    0.3954816892616954 O
   0.2142938519224237    0.3865246433517884    0.2379565257566343 O
   0.2714171628459510    0.1358172056966716    0.9906595257991020 O
   0.2776526970758336    0.1254282813802490    0.2464130661616521 O
   0.2123893880942368    0.3651877793583002    0.4819936574455084 O
   0.0470425577715174    0.1782918975392004    0.6738328053423754 O
   0.4463537751813712    0.4197722485983496    0.5807531919703709 O
   0.4611676808212781    0.3308173817544951    0.8378140576505454 O
   0.0319789884326388    0.0977659728796519    0.9345977207987761 O
   0.2330826619821957    0.3865722596531704    0.7418481594483864 O
   0.2739890703739006    0.1313717479300486    0.5141587635446154 O
   0.2764286281941025    0.1132299376701979    0.7534944558347331 O
   0.2261894938071222    0.3681761783393329    0.9773767541262705 O
   0.0262261389615907    0.6458792010712046    0.1863229415860157 O
   0.4565606063675898    0.9123523956229235    0.0934755167385687 O
   0.4783284638920861    0.8195796538466957    0.3226646841039455 O
   0.0519238853288431    0.5816476694590103    0.4197896341218041 O
   0.2218253595580393    0.8764906555070842    0.2532274589141349 O
   0.2612491637246065    0.6288401843039924    0.0058554912273942 O
   0.2823847595506867    0.6184550692964111    0.2491405249724603 O
   0.2218725452097917    0.8592840293715460    0.4972759353167047 O
   0.0198511714129166    0.6656580597304611    0.6911798215294901 O
   0.4593522110670428    0.9147970164572391    0.5558685573808362 O
   0.4707400073226529    0.8481580047364043    0.8260221707380293 O
   0.0263860854558413    0.5936631665791968    0.9478171511427375 O
   0.2151992219117520    0.8809627783920001    0.7346745173521881 O
   0.2650274311563451    0.6292058774860101    0.5118699670917971 O
   0.2578941624135490    0.6343141541462883    0.7390639770598976 O
   0.1973216245545369    0.8854253780254657    0.9690762035667763 O
   0.5255222344355880    0.1872437619319706    0.1788165211508601 O
   0.9457231154319014    0.4205541082438836    0.0740595079609979 O
   0.9378473363080944    0.3272709197365755    0.3295301280772611 O
   0.5364276142523675    0.0688129769461112    0.4055936128124250 O
   0.7050635750059603    0.3635545402684105    0.2319315361567816 O
   0.7734358369010008    0.1458575786969929    0.0303235478501478 O
   0.7715841978057408    0.1109234040986721    0.2803451117731489 O
   0.7291339581791696    0.3572882351998784    0.5062590596246572 O
   0.5305339033044139    0.1584368528046779    0.6871864814896083 O
   0.9728073817743672    0.4259461780526453    0.5886916570031245 O
   0.9747637106614000    0.3392921308110812    0.8338481340097634 O
   0.5368755628269756    0.0912255883829507    0.9246682581075305 O
   0.7448415970424270    0.3743605833688921    0.7407902646800107 O
   0.7795520861922028    0.1326926240991889    0.5226531196680870 O
   0.7901828091312112    0.1352048600771353    0.7847746740815313 O
   0.7258526478336813    0.3816049272439034    0.9733777417295407 O
   0.5151026444698311    0.6561843206919357    0.1703174380648823 O
   0.9699713624035593    0.9049604412288728    0.0698273616545713 O
   0.9582922490871283    0.8143380515566698    0.3170878107870950 O
   0.5343864097438559    0.5731091145594214    0.4198179959152457 O
   0.7107366620869771    0.8788867077190641    0.2397177929213785 O
   0.7540334239848350    0.6377834777565184    0.0262876651201036 O
   0.7648351298269976    0.6147067141683846    0.2581123045575149 O
   0.7245073051281425    0.8782067469539054    0.4958181393123370 O
   0.5406684359023368    0.6551719981558135    0.6838435718365787 O
   0.9903010541406433    0.9148351095002484    0.5873548712996494 O
   0.9538478843007607    0.8309599495246802    0.8195755358599327 O
   0.5191698256057171    0.5964106270832525    0.9127043096732890 O
   0.7031316970486267    0.8898965485881486    0.7377508261781556 O
   0.7908300237767563    0.6320752357186321    0.5121365679096569 O
   0.7847704718658429    0.6231586074052453    0.7648231001731846 O
   0.7308767628486796    0.8874995440445318    0.9994611346419122 O
   0.1400486211999365    0.0239062349604353    0.1002373456429529 Zr
   0.3588055531873543    0.2774880781805675    0.1390447829636150 Zr
   0.3530630711832179    0.4878806993486103    0.3985759605617503 Zr
   0.1419967971194800    0.2344019930398317    0.3521325839559646 Zr
   0.1538138429205514    0.0165444692951685    0.6051613484926642 Zr
   0.3409649522898423    0.2686552545467747    0.6494605737590547 Zr
   0.3671115835973198    0.4684303931611567    0.8868137769305532 Zr
   0.1385692470891172    0.2396769267399771    0.8652956868157812 Zr
   0.1364798398341435    0.5159305092988388    0.1085170975453345 Zr
   0.3594070483858522    0.7711500675309882    0.1414952416280071 Zr
   0.3708101843021067    0.9763915573787717    0.3897091195921840 Zr
   0.1436096240745592    0.7273287867177040    0.3444512658252608 Zr
   0.1435598913358165    0.5230186717070537    0.6032809618065086 Zr
   0.3576884772124227    0.7606573396811591    0.6433627888961173 Zr
   0.3629088704852583    0.9822197924911547    0.8866246983290820 Zr
   0.1353412590497415    0.7279668451411916    0.8597604107947512 Zr
   0.6337897492153629    0.0344143904944139    0.1275828382162335 Zr
   0.8583017543073320    0.2811326297739296    0.1451955098360687 Zr
   0.8649907915159065    0.4806649252569140    0.4036262499756661 Zr
   0.6301741721225897    0.2346162663812944    0.3488889405707780 Zr
   0.6311326313023161    0.0222475687722839    0.6110246758809432 Zr
   0.8792430627709946    0.2621756284497320    0.6392777457339237 Zr
   0.8721550495009307    0.4732291638589675    0.8873309068992733 Zr
   0.6357952336492623    0.2278090401505247    0.8534811104758736 Zr
   0.6313782611632577    0.5284069322035879    0.1034545180233813 Zr
   0.8574447233126116    0.7702491671431481    0.1445498064117225 Zr
   0.8829640077745899    0.9632018423043635    0.4086207611970406 Zr
   0.6535122343303140    0.7243641958922311    0.3522309048294658 Zr
   0.6305567432525314    0.5013808726952085    0.5896455585411511 Zr
   0.8598287259101256    0.7660160780809623    0.6488479590906562 Zr
   0.8694927229050813    0.9859433871433021    0.9081768225849411 Zr
   0.6399258722446037    0.7351511924738789    0.8534102060014722 Zr
