0,0,0,0,0,0,0,0,0,0,0,0,0,0,0,0,0,0,0,0,0,0,0,0,0,0,0,0,0,0,0,0,0,0,0,0,0,0,0,0,0,0,0,0,0,0,0,0,0,0,0,0,0,0,0,0,0,0,0,0,0,0,0,0,0,0,0,0,0,0,0,0,0,0,0,0,0,0,0,0,0,0,0,0,0,0,0,0,0,0,0,0,0,0,0,0
1.0
  10.8952774506493810    0.0000000000000000   -0.0000000000000001
   0.0696154587947769   10.5972624955649444   -0.0000000000000000
  -2.2206649424928502    0.1456154174509714   10.1351843972940880
O Zr
64 32
direct
   0.0302436323241704    0.1664852482511460    0.1722156299263781 O
   0.4812836848764278    0.3951149327908424    0.0691763418618397 O
   0.4823878661554643    0.3698765291806718    0.3157056404375111 O
   0.0305757862623803    0.1002845338557801    0.4096741054566844 O
   0.2327017452175595    0.3630902515227988    0.2398565196158671 O
   0.2630580805266063    0.1182435623523627    0.0076546478444648 O
   0.2656186865239651    0.1158599406280321    0.2522501359208192 O
   0.2278333866240977    0.3745838013019724    0.4906715618936063 O
   0.0335903409669520    0.1618845917957722    0.6739799038509581 O
   0.4606463297328187    0.4128626337999944    0.5698905367564968 O
   0.4473547523319899    0.3415691174072318    0.8373705751190723 O
   0.0110465394798276    0.0998609269542337    0.9461414500421103 O
   0.2154931606040077    0.3766056912923456    0.7260690021845758 O
   0.2808175164508143    0.1226766799045480    0.5043806119763158 O
   0.2476709958929569    0.0957131015122568    0.7366973668573250 O
   0.2191196653052021    0.3718822364355763    0.9931748223236515 O
   0.0338963571234458    0.6254904488905383    0.1979402981001124 O
   0.4804840228610552    0.9157068644192857    0.0777995205208618 O
   0.4830661744698708    0.8403134044302771    0.3363188278261665 O
   0.0094138886188421    0.6125099913170071    0.4502937930974848 O
   0.2491791767041334    0.8618259712208872    0.2493650645838037 O
   0.2499803881622538    0.6247165333710922    0.0214161735190482 O
   0.2830545176627265    0.6241986858411280    0.2622160587339223 O
   0.2014227377047131    0.8781115144984024    0.4910013653356525 O
   0.0462785215780079    0.6736236152742190    0.6914774409897344 O
   0.4517397077836386    0.9174841095269444    0.5826687662512238 O
   0.4736863763045961    0.8199831292523247    0.8263396423587520 O
   0.0246916961718034    0.5881445034870700    0.9219344446751924 O
   0.2391520550478186    0.8626017905924291    0.7514742618825390 O
   0.2721818824286347    0.6301853459825287    0.5210834078766249 O
   0.2832125911984398    0.6217741313292745    0.7615989439383875 O
   0.2299925316160751    0.8743019082261221    0.9931748223236515 O
   0.5268575230479032    0.1707660577052791    0.1706063025416336 O
   0.9647301678650584    0.4031025405556862    0.0742998240960518 O
   0.9749705076087229    0.3640440809846429    0.3063520747317593 O
   0.5375141466124841    0.0898478118850054    0.4251984919337579 O
   0.7457988683103357    0.3815890218444316    0.2171265422450059 O
   0.7776502090296507    0.1289574850519036    0.0119719543960537 O
   0.7805929854803575    0.1182863990016645    0.2684388542675525 O
   0.7146547538074658    0.3771797024304807    0.4601122966095243 O
   0.5113979351674542    0.1487489703429477    0.6561714631828053 O
   0.9683855675312746    0.4151767649512089    0.5658091010885830 O
   0.9875145879991771    0.3331464796406982    0.8207339289081740 O
   0.5204541916511853    0.0981789695984381    0.9143489655969306 O
   0.7101317744903327    0.3908150848238278    0.7430505717696294 O
   0.7710983002655633    0.1372725552318386    0.5325017888121407 O
   0.7658674302819014    0.1357961186135258    0.7598299123157575 O
   0.7201589991949110    0.3581069209779923    0.9800110346538761 O
   0.5350885829527896    0.6555046632733490    0.1790951973488135 O
   0.9782569790461743    0.8961571682345568    0.0752793119584187 O
   0.9602175497251826    0.8484866376929152    0.3074284246305251 O
   0.5020069321397606    0.6062072918727647    0.4438649885443682 O
   0.7160031167333016    0.8848711382402119    0.2313912496970577 O
   0.7781070391351338    0.6224804601267122    0.0024559156128077 O
   0.7763147717831501    0.6265185285492660    0.2530618870816759 O
   0.7191696545566019    0.8912499917253154    0.4692258334510109 O
   0.5460049024732079    0.6600158387231017    0.6789250654321702 O
   0.9474168225500458    0.9209890996061200    0.5810858987402703 O
   0.9799724020513866    0.8409559542208633    0.8292833034240568 O
   0.5341298252914632    0.5904119902815059    0.9212852327475084 O
   0.7181449563034780    0.8816165045899322    0.7452769812275595 O
   0.7525609160125969    0.6425641865804836    0.4985027398069742 O
   0.7931400663537623    0.6217998333132592    0.7640946771197940 O
   0.7391406216049459    0.8715632182551134    0.9906705841761169 O
   0.1319588068420835    0.0176477767367084    0.1131345096993136 Zr
   0.3654511398495698    0.2729638389296457    0.1302379837067802 Zr
   0.3638403352494869    0.4745188553553170    0.3768941006756465 Zr
   0.1480635559578680    0.2225679453746876    0.3470265721202885 Zr
   0.1280902102460455    0.0202451057494264    0.5922803157289035 Zr
   0.3472635777242486    0.2693046368928459    0.6480823014876428 Zr
   0.3650485301650931    0.4875802266084340    0.9047298561482630 Zr
   0.1548956949921856    0.2204356320206601    0.8533939192472125 Zr
   0.1382268782069022    0.4984521689601109    0.1230012079733675 Zr
   0.3693059874941514    0.7548057348724346    0.1500923396821607 Zr
   0.3722067184161219    0.9660437385782269    0.3883568964024828 Zr
   0.1315736699294812    0.7199566903387439    0.3462724656827145 Zr
   0.1372763953676710    0.5376039172432645    0.6024371276392506 Zr
   0.3498206914949062    0.7705429690065043    0.6369767140717837 Zr
   0.3559816513999621    0.9762103040584725    0.8971661119680913 Zr
   0.1444072990181894    0.7295235426839813    0.8754756296756633 Zr
   0.6312203910219021    0.0294571754225327    0.1114278477756669 Zr
   0.8535720433942146    0.2764393193157852    0.1444261465130131 Zr
   0.8679276292730940    0.4878905543580204    0.3926320561530610 Zr
   0.6485374807189725    0.2179844235809411    0.3627560226315750 Zr
   0.6334890697403813    0.0166229336278475    0.6076062531574786 Zr
   0.8758504129639412    0.2714302867708648    0.6506961591109014 Zr
   0.8617086284975963    0.4740971523134426    0.8943745951795509 Zr
   0.6236738342420882    0.2410353021465681    0.8438853742694092 Zr
   0.6507675301346338    0.5257514915113639    0.0984628871741526 Zr
   0.8682269259060822    0.7715472505190715    0.1320986798974716 Zr
   0.8624454619593881    0.9735163545951027    0.3963317136363536 Zr
   0.6550270866067528    0.7422250860521226    0.3509303486327872 Zr
   0.6269230017957588    0.5163731204410120    0.6008249652690857 Zr
   0.8680573519390095    0.7732949859356730    0.6789912151215809 Zr
   0.8464824575460862    0.0015099532652894    0.8987111796438388 Zr
   0.6412112863193214    0.7301613328379274    0.8575622945074870 Zr
