2,2,2,2,2,2,2,2,2,2,2,2,2,2,2,2,2,2,2,2,2,2,2,2,2,2,2,2,2,2,2,2,2,2,2,2,2,2,2,2,2,2,2,2,2,2,2,2,2,2,2,2,2,2,2,2,2,2,2,2,2,2,2,2,2,2,2,2,2,2,2,2,2,2,2,2,2,2,2,2,2,2,2,2,2,2,2,2,2,2,2,2,2,2,2,2
1.0
  10.6707837666077801   -0.0000000000000000   -0.0000000000000000
   0.0757280780560239   10.1449851712209700   -0.0000000000000000
   0.2854968251099468    0.3667398643878323   10.4906714343079202
O Zr
64 32
direct
   0.1305222286846284    0.1532025044704813    0.1285983647612924 O
   0.1848089360621790    0.3287342078579775    0.3058190232331541 O
   0.1188973845472739    0.1148435698859864    0.3656871715335621 O
   0.1654528823334683    0.4112776965072374    0.0579935249626028 O
   0.4075988546828821    0.4018119410914254    0.1813189390222750 O
   0.4255202983887656    0.3448236540274713    0.4364550626975252 O
   0.3741773808994654    0.1054221268899607    0.3547997308663733 O
   0.3773220455036181    0.1429672406112844    0.1107942527490547 O
   0.1344320551387979    0.1451517513430947    0.6357240897078931 O
   0.1701855288674791    0.3500410893772245    0.8064813653234150 O
   0.1226905208621362    0.1088652587363057    0.8750159353270778 O
   0.1814132228787576    0.4046597461938144    0.5510679691477139 O
   0.4272991821751335    0.4024426176081819    0.6807964853082032 O
   0.4406500773506560    0.3418861083911544    0.9349238291769113 O
   0.3646471883932774    0.1039449309363414    0.8709032176263878 O
   0.3771761282645627    0.1456841377957845    0.6043639075060088 O
   0.1357663748262757    0.6554027390088958    0.1405371697543078 O
   0.1868965462264975    0.8510703960548460    0.3155651989226937 O
   0.1226824115849511    0.5966628179277887    0.3820661218205830 O
   0.1699556916691367    0.9165196823752184    0.0511764067497381 O
   0.4196247813511629    0.9066957270028998    0.1746161365715147 O
   0.4308811292387012    0.8386731107937363    0.4297759183035017 O
   0.3605549002003415    0.6080494448763035    0.3716792857746413 O
   0.3766326199401206    0.6409084375104493    0.1278753743457127 O
   0.1292318861305436    0.6444854073681417    0.6249823827155767 O
   0.1888000756420262    0.8409570422743434    0.8175107543691538 O
   0.1165038822991937    0.6171450511080390    0.8883836873320999 O
   0.1751040110881445    0.9119800739730812    0.5666718812828955 O
   0.4443977256913454    0.9062498333940324    0.6841228089966834 O
   0.4311451006660566    0.8470916841832030    0.9264807395944528 O
   0.3633527318770038    0.5959039952270174    0.8742020979522764 O
   0.3835008900545633    0.6417969415970385    0.6166547444755403 O
   0.6174744342501409    0.1387013084627675    0.1434679306109916 O
   0.6743322580544910    0.3463755489940723    0.3303571663360014 O
   0.6232345447813361    0.1121452553907753    0.3941430898958260 O
   0.6649576729613889    0.4096903934593065    0.0808432394256898 O
   0.9116732098195572    0.3994954474034728    0.1947103490935664 O
   0.9273775259338590    0.3342695492951654    0.4349901554228829 O
   0.8681339673120475    0.1089992022678725    0.3711058143207242 O
   0.8693782326694736    0.1459036938117843    0.1061080635944476 O
   0.6259959873384194    0.1507815904242389    0.6403724259564696 O
   0.6775644878606562    0.3416834154500694    0.8228489597405333 O
   0.6107223588649604    0.1082639910064911    0.8912254938729571 O
   0.6883362039259135    0.4221613505787385    0.5729251805412692 O
   0.9375032279498221    0.4035300084330105    0.6890768074157015 O
   0.9273924235342901    0.3416961861640364    0.9237411358827198 O
   0.8763417275904762    0.1070083309534777    0.8555415640554854 O
   0.8819182656880596    0.1333203350085606    0.6081501439398467 O
   0.6269135502831094    0.6520057462512263    0.1306462067068272 O
   0.6866121539981205    0.8364865438441486    0.3061956595928707 O
   0.6024007612176654    0.6120250702785252    0.3725480098460288 O
   0.6785466625290448    0.9058356785641499    0.0606358467218514 O
   0.9456948388294233    0.9248763379057233    0.1911938145865991 O
   0.9392524462478459    0.8360909199809801    0.4403226828640772 O
   0.8720680364926244    0.6076381051130194    0.3729766939515373 O
   0.8906109682246063    0.6519211167142583    0.1301153197721944 O
   0.6330346087233683    0.6542739098365372    0.6224471846620925 O
   0.6771182413688943    0.8500084778155990    0.8226890312354318 O
   0.6295987172591976    0.5951226451585228    0.8827085911408973 O
   0.6845020048161681    0.9204430390359117    0.5680781165550969 O
   0.9308998271760495    0.9023214452635345    0.6736290384988314 O
   0.9282425274051841    0.8383836852033580    0.9321927423652223 O
   0.8731135470130879    0.6035551051960654    0.8794740607476348 O
   0.8727555254362060    0.6438044338243130    0.6252322118534361 O
   0.4950560667800826    0.0113834919173546    0.0145916725214928 Zr
   0.2438956243123900    0.0141556671816459    0.2249576559973245 Zr
   0.2510344165197030    0.2343248696745729    0.4845717778726107 Zr
   0.4953826686368296    0.2515657480477163    0.2721980765179100 Zr
   0.5005152304852352    0.0098724265694031    0.5209465231393492 Zr
   0.2520347508391576    0.0077496037396847    0.7278826552538725 Zr
   0.2470808551042713    0.2347734941842612    0.9833301190392819 Zr
   0.5055506439061910    0.2520763673453501    0.7771027824910444 Zr
   0.4922367837645762    0.5203289185637620    0.0171936809316247 Zr
   0.2399790616884002    0.5069436086889770    0.2344208812657603 Zr
   0.2569394774705333    0.7311944236954399    0.4801458274088344 Zr
   0.4935832020431339    0.7501849710453534    0.2673491198883427 Zr
   0.5034098675339177    0.5001712070840496    0.5132008732532739 Zr
   0.2494390445401133    0.5075614931490753    0.7302494078926790 Zr
   0.2514826643401325    0.7395027812292907    0.9791000573432425 Zr
   0.5143288390357202    0.7400243856683493    0.7531087748361277 Zr
   0.9980625488571513    0.0071830572290899    0.0113305220685183 Zr
   0.7510009950710776    0.0153358542407851    0.2385459011532843 Zr
   0.7646587737145276    0.2307290923042249    0.4898172436318412 Zr
   0.9965360781187983    0.2410303430042700    0.2595741340153454 Zr
   0.0062767946784319    0.0027690074337517    0.5103212138063862 Zr
   0.7570808709993121    0.0106292051076941    0.7339107297480550 Zr
   0.7348332194876179    0.2398552080792388    0.9905694863643925 Zr
   0.0036215109837440    0.2338662320574920    0.7715440839782597 Zr
   0.0030831159433407    0.5054970807751921    0.0124533621339766 Zr
   0.7396377959093670    0.5091882627593104    0.2338890480046638 Zr
   0.7504155640639644    0.7418951553130625    0.4766643068380388 Zr
   0.0062208754961656    0.7412034012487292    0.2754931715474762 Zr
   0.9911102617988576    0.5082041331085065    0.5251112885762987 Zr
   0.7559129078983238    0.5087866547592882    0.7313395714414676 Zr
   0.7569975123482868    0.7402073689512123    0.9943737029247820 Zr
   0.9963172766743783    0.7405538091005854    0.7710491572967301 Zr
