2,2,2,2,2,2,2,2,2,2,2,2,2,2,2,2,2,2,2,2,2,2,2,2,2,2,2,2,2,2,2,2,2,2,2,2,2,2,2,2,2,2,2,2,2,2,2,2,2,2,2,2,2,2,2,2,2,2,2,2,2,2,2,2,2,2,2,2,2,2,2,2,2,2,2,2,2,2,2,2,2,2,2,2,2,2,2,2,2,2,2,2,2,2,2,2
1.0
  10.6811477677780271    0.0000000000000000   -0.0000000000000000
  -0.4256564434345266   10.3458626448444431   -0.0000000000000000
   0.3356028207249829    0.0892196224621167   10.7427834585090825
O Zr
64 32
direct
   0.1105343199419057    0.1363336395325852    0.1342027066884661 O
   0.1922006407029651    0.3440780383953514    0.3127580994419761 O
   0.1279018984620800    0.1102313759926064    0.3840926298790584 O
   0.1606651112814990    0.4085495554442070    0.0699387420589666 O
   0.4143751378345774    0.4021170155211992    0.1795721705692583 O
   0.4098528514698539    0.3518498574267153    0.4355732985936406 O
   0.3918601591979302    0.0995574862989694    0.3755480852780692 O
   0.3659272310056079    0.1355373105065930    0.1210502078928133 O
   0.1002984628547177    0.1532469911629412    0.6344509025080837 O
   0.1943866971726504    0.3437195267064942    0.8287092211700910 O
   0.1225744342341595    0.1256571279686826    0.8869601832710108 O
   0.1916743226032231    0.4167366418704536    0.5666148291091754 O
   0.4359002406426630    0.3992801580297204    0.6769309524748857 O
   0.4396595557104638    0.3348272926193174    0.9412660567025288 O
   0.3830337568153627    0.1137995432200114    0.8703545515751860 O
   0.3666006008584340    0.1178421362537877    0.6205684962047272 O
   0.1276619996925356    0.6551325891215439    0.1342801354296497 O
   0.1751716379728462    0.8522919553872915    0.3320019737784966 O
   0.1302021598202318    0.6061409375548946    0.3867308725104456 O
   0.1620084563677585    0.9024275338686629    0.0905535771857593 O
   0.4276340319278704    0.9017244638704061    0.1810791982183334 O
   0.4404880327637539    0.8332378988164084    0.4392794912720813 O
   0.3815511377058735    0.6083875593824299    0.3705274925510251 O
   0.3755971768541123    0.6418895202389789    0.1362422929730286 O
   0.1200479079417517    0.6401357102487247    0.6481000783354022 O
   0.1705917122163435    0.8382946676707387    0.8315042097888198 O
   0.1106255368556913    0.6050263564051762    0.8844154216730893 O
   0.1791305290082111    0.9083915713948230    0.5714994494222132 O
   0.4211353680680455    0.8936962276055047    0.6860788746758270 O
   0.4225835778158129    0.8425060721666271    0.9356279225696077 O
   0.3699606155510014    0.6152991411534463    0.8622396420513467 O
   0.3861509243518605    0.6216119162022257    0.6223757962750476 O
   0.6210090064665129    0.1274208099583180    0.1342366997966220 O
   0.6604307747462764    0.3472663095692696    0.3228833234139667 O
   0.6388951666074645    0.1012411697091888    0.3928864572390591 O
   0.6787814918305451    0.4065385936454556    0.0826602838295728 O
   0.9281197985243014    0.4195734750944780    0.1798271188525015 O
   0.9171416943015005    0.3653433189085556    0.4125269177877521 O
   0.8799273615601042    0.1305304815696812    0.3561361339336695 O
   0.8656350556823741    0.1379321991475337    0.1146151242976726 O
   0.6169496095191339    0.1506969621494083    0.6319099179201109 O
   0.6905495951354714    0.3377927009325863    0.8077364197662296 O
   0.6262772727729923    0.1137435704123222    0.8873529924825433 O
   0.6887677313217534    0.4092849014279661    0.5587992477634026 O
   0.9375561615615309    0.4119232759102104    0.6831989032960172 O
   0.9231094640715497    0.3329773694414507    0.9321256885214851 O
   0.8721420385257105    0.1063448576712622    0.8596533333253719 O
   0.8673925418781850    0.1471129823936797    0.6099843653191755 O
   0.6197555378024125    0.6354550403253116    0.1372809711836707 O
   0.6756661308609163    0.8335894535366712    0.3041890042763201 O
   0.6315391035661292    0.6141887017628247    0.3844098988543816 O
   0.6718598539983094    0.9023303330566202    0.0512150566587291 O
   0.9293193051188088    0.9041880852163265    0.1803105763400381 O
   0.9318897962485468    0.8569088913066781    0.4310286093342356 O
   0.8827471796491009    0.6202726444117010    0.3565959850997178 O
   0.8649138627969842    0.6384793394930248    0.1129466294081287 O
   0.6313317620641651    0.6458877644479482    0.6278156373018824 O
   0.6776476865799359    0.8346036596267210    0.8082652013917682 O
   0.6273515375477958    0.5907660255468641    0.8841444210882554 O
   0.6834879471113791    0.9101658897430976    0.5691614792120713 O
   0.9191631945542043    0.9081460685268287    0.6830043871998797 O
   0.9317745393527483    0.8351898335535496    0.9380121611702391 O
   0.8695128656077731    0.6052580960076999    0.8480040851595367 O
   0.8721682753934038    0.6413837331115011    0.5993152516818513 O
   0.4977576202460125    0.0003620320127706    0.0234153066913731 Zr
   0.2410742101447722    0.0118523970251558    0.2357892118912301 Zr
   0.2501229725067255    0.2349059038259041    0.4813308504235293 Zr
   0.5001402047469912    0.2374353596710010    0.2696623965742715 Zr
   0.5070785249282754    0.0012535481814500    0.5266880390126795 Zr
   0.2478775646624983    0.0052790335325529    0.7368201933671422 Zr
   0.2470165886588040    0.2509797186247998    0.9848414400478213 Zr
   0.5011071065957123    0.2469519557497002    0.7723665942114721 Zr
   0.5014228172324997    0.5056470713252093    0.0262104841624610 Zr
   0.2570120999841889    0.5072995852433478    0.2387239499339138 Zr
   0.2610883800133176    0.7391833333866198    0.4818199734259889 Zr
   0.5023533811584944    0.7375799158079477    0.2663461803499016 Zr
   0.5040207921424573    0.4934879281855128    0.5150085747486374 Zr
   0.2495604220375623    0.5091700213824726    0.7363886697943267 Zr
   0.2477288276172222    0.7495257173347951    0.9911773770759560 Zr
   0.4994886755737782    0.7391459579729257    0.7674791411409728 Zr
   0.9845078373035955    0.0113227814524574    0.0159489100717458 Zr
   0.7491750282066660    0.9943238129210213    0.2317345898867720 Zr
   0.7542416476691164    0.2378447723055863    0.4761572887190925 Zr
   0.0040008331801050    0.2560455733726328    0.2440448150915117 Zr
   0.9946775105370508    0.0107934210216102    0.5126573850036747 Zr
   0.7574559895537107    0.0174704129257386    0.7399900503908382 Zr
   0.7476422023186101    0.2472425555472069    0.9848225549887690 Zr
   0.0003589760084750    0.2390887928569733    0.7675688451737982 Zr
   0.9962100127068800    0.5196491633458961    0.0063010153989825 Zr
   0.7549078398389165    0.5131596446020029    0.2427464673444991 Zr
   0.7440177542742372    0.7480873262679618    0.4793951319497916 Zr
   0.0125164310825452    0.7536891910346911    0.2616277485490772 Zr
   0.0069382776336952    0.5027797777524179    0.5087935020947140 Zr
   0.7504462960594060    0.5095568990513274    0.7194572708414856 Zr
   0.7462703414545959    0.7328066773376622    0.9796574915660254 Zr
   0.9944099290985483    0.7392176372987694    0.7691693538563391 Zr
