0,0,0,0,0,0,0,0,0,0,0,0,0,0,0,0,0,0,0,0,0,0,0,0,0,0,0,0,0,0,0,0,0,0,0,0,0,0,0,0,0,0,0,0,0,0,0,0,0,0,0,0,0,0,0,0,0,0,0,0,0,0,0,0,0,0,0,0,0,0,0,0,0,0,0,0,0,0,0,0,0,0,0,0,0,0,0,0,0,0,0,0,0,0,0,0
1.0
  10.7930065994661089   -0.0000000000000000    0.0000000000000000
  -0.4223916861384628   10.5603833609324695   -0.0000000000000000
  -1.7772117914830727    0.1648091282786691   10.8333535036778201
O Zr
64 32
direct
   0.0379744949381969    0.1400008739179745    0.1941665063995087 O
   0.4775331897616287    0.4110501187198476    0.0889096660764376 O
   0.4565208799142128    0.3145386608567579    0.3442182760798885 O
   0.0390953083023736    0.0679135570165526    0.4244521230788731 O
   0.2274006066487001    0.3699519746939348    0.2327205191766424 O
   0.2516079148985140    0.1208358917014703    0.9954522779524276 O
   0.2813692571778235    0.1207354914085178    0.2532581058550856 O
   0.2125548642172277    0.3761308957686830    0.4869059027852500 O
   0.0274201358851647    0.1518108173054548    0.6610425396687003 O
   0.4587095306359559    0.4259868141849783    0.5870119247323624 O
   0.4889830137501173    0.3612697395744914    0.8416320566576756 O
   0.0299832242199431    0.0793377720324798    0.9192014090299316 O
   0.2322378490905798    0.3594759209526099    0.7427685795970962 O
   0.2628082416529667    0.1310881962151458    0.5006745150390052 O
   0.2879155805706411    0.0981004837227206    0.7528143033762614 O
   0.2185581650938754    0.3671876198846292    0.9783471147140002 O
   0.0328900379783432    0.6632107211657015    0.1727186061051891 O
   0.4681710926006504    0.9115752362340022    0.0957737535609598 O
   0.4374318652327674    0.8246314484771201    0.3217300173502817 O
   0.0401774465360473    0.5871015596451359    0.4360745214578474 O
   0.2030712278282985    0.8687827176907481    0.2355179063097874 O
   0.2725900568951470    0.6143463752035866    0.0135513601351752 O
   0.2809801799201167    0.6121375686871918    0.2538931421527255 O
   0.2347981693435773    0.8790292850392414    0.4943697151377731 O
   0.0359702889097411    0.6688742540544619    0.6689638819078202 O
   0.4640699879583127    0.9167941392323410    0.5622806304374756 O
   0.4620418604821083    0.8563244752494300    0.8178490452833556 O
   0.0273168004764516    0.5785627535141058    0.9291844834918962 O
   0.2306429427787012    0.8737329303836480    0.7397367321281799 O
   0.2666297001474234    0.6494386691317968    0.5054425080969686 O
   0.2785727366991801    0.6035662519967219    0.7600683354239852 O
   0.2255864963041359    0.8572844933198670    0.9970564802794448 O
   0.5297830967382813    0.1760283248891829    0.1709558820056278 O
   0.9754769210517354    0.3862445522515865    0.0719999497325733 O
   0.9706534332419195    0.3248980590209301    0.3366756774679020 O
   0.5210868449366060    0.1040164516369080    0.4121111559762477 O
   0.7299964851398401    0.3850397487013527    0.2490273781875688 O
   0.7758154010619279    0.1442836636912294    0.0097270746924510 O
   0.7508028269523900    0.1245937313539392    0.2714434952761099 O
   0.7192486769452660    0.3832143757004245    0.4982093591580553 O
   0.5406236248984622    0.1675354160424555    0.6762682232618742 O
   0.9665306475040855    0.4318205494707759    0.5886559948066893 O
   0.9599859235997037    0.3264671722109698    0.8112006233449827 O
   0.5273199976483929    0.0825352824091685    0.9224942953359024 O
   0.7232380191767421    0.3742921360665707    0.7401914143277710 O
   0.7662041958209838    0.1275139456804278    0.5042142017100790 O
   0.7732960019167925    0.1177502559370217    0.7653565077042077 O
   0.7216884980704777    0.3963190048130794    0.9977684043846983 O
   0.5344612296691438    0.6522603955524096    0.1962206447595692 O
   0.9616995557409029    0.9046007623365273    0.0770303105605015 O
   0.9489468231074563    0.8190970016882642    0.3398185850900378 O
   0.5319095696629192    0.6010046101541651    0.4394196155312289 O
   0.7158339941601495    0.8892079626684397    0.2522974829236482 O
   0.7750452447057604    0.6281222520024889    0.0112085413033718 O
   0.7780674299343046    0.6235172250949020    0.2787430904636162 O
   0.7143970055618883    0.8799271505443641    0.4920972533842041 O
   0.5159863144491076    0.6720105680566884    0.6825502415932152 O
   0.9514485093424255    0.9349484251374242    0.5824518135088869 O
   0.9745747457444648    0.8176053401500274    0.8334828987011823 O
   0.5325828201706593    0.5965305817301487    0.9180898581887346 O
   0.7345097764528077    0.8721666857594703    0.7430058876291037 O
   0.7493724392478385    0.6280046402303169    0.5139352880998334 O
   0.7615979072583796    0.6147747498010009    0.7637570515345076 O
   0.7290293910997006    0.8817907712806231    0.9747305402445434 O
   0.1345572360984262    0.0159426346516676    0.1086530302182416 Zr
   0.3686982265036287    0.2590498077451101    0.1330122255043930 Zr
   0.3704495223789688    0.4852641051309737    0.4079364330075339 Zr
   0.1597987498950955    0.2364587849501264    0.3377540051801874 Zr
   0.1490904742505237    0.0037742048378164    0.6079386965784981 Zr
   0.3656488737845200    0.2623037335319928    0.6502725517549496 Zr
   0.3589530485227053    0.4781022173452035    0.8987910194654322 Zr
   0.1304868492981503    0.2224419474398559    0.8404037502615552 Zr
   0.1372217975204461    0.5049760299113617    0.0910517033313026 Zr
   0.3529777354334809    0.7711898052143867    0.1400422387661355 Zr
   0.3638622500382870    0.9884617829039298    0.3886708174039127 Zr
   0.1324214153526128    0.7265202792409700    0.3450972650463953 Zr
   0.1443977925868280    0.5165239763324162    0.6003552809840463 Zr
   0.3667478331710611    0.7727063277788996    0.6374171008225380 Zr
   0.3545624445806936    0.9747308471824625    0.8975313884107115 Zr
   0.1321292971838351    0.7163310834881631    0.8473587741859958 Zr
   0.6357836928358163    0.0226005129551373    0.1079847707824591 Zr
   0.8598100136289698    0.2674690897106404    0.1605912162295243 Zr
   0.8660126019339552    0.4821497835651416    0.4016411254209360 Zr
   0.6349399228921787    0.2473383522654961    0.3522497292555337 Zr
   0.6263496088397763    0.0356109570216613    0.5854276562790001 Zr
   0.8599177904948421    0.2569643501721585    0.6517979678132726 Zr
   0.8690882993672867    0.4694324127414936    0.8917866354698172 Zr
   0.6400747211765745    0.2419827136155027    0.8558069402750030 Zr
   0.6412124463376879    0.5385900490025936    0.1040435589235915 Zr
   0.8722602257439794    0.7643530231566933    0.1553951194640223 Zr
   0.8704594306750836    0.9917510878395925    0.4030412428356267 Zr
   0.6354629739366222    0.7279822987883023    0.3550623040957857 Zr
   0.6269117759159976    0.5328920931623226    0.6198657984732285 Zr
   0.8730179081505312    0.7772109543956438    0.6522887208287812 Zr
   0.8558314562315856    0.9840154840821896    0.8874372537862967 Zr
   0.6436888325517208    0.7373376939872714    0.8599788155474805 Zr
