0,0,0,0,0,0,0,0,0,0,0,0,0,0,0,0,0,0,0,0,0,0,0,0,0,0,0,0,0,0,0,0,0,0,0,0,0,0,0,0,0,0,0,0,0,0,0,0,0,0,0,0,0,0,0,0,0,0,0,0,0,0,0,0,0,0,0,0,0,0,0,0,0,0,0,0,0,0,0,0,0,0,0,0,0,0,0,0,0,0,0,0,0,0,0,0
1.0
  10.3127796641770910    0.0000000000000000   -0.0000000000000000
  -0.1639881817186376   10.7256369240067162    0.0000000000000000
  -1.2528541600690046    0.3777214992279609   10.2689626597377135
O Zr
64 32
direct
   0.0402694990480304    0.1551996651080920    0.1712937734691235 O
   0.4576995393089269    0.4085709083378735    0.0790526915131206 O
   0.4695640107107064    0.3333908478330189    0.3316815553584840 O
   0.0385288349219189    0.0849896212292420    0.4129287080695555 O
   0.2288131887104148    0.3734246788907577    0.2356422844234790 O
   0.2702326269223092    0.1192283305906643    0.0030954251518149 O
   0.2954567584120732    0.1231542645885781    0.2699695169278967 O
   0.2343111019663145    0.3752248213386123    0.4979916831083907 O
   0.0245655182773677    0.1639797763355621    0.6843412772989373 O
   0.4753712414597528    0.4210382078898283    0.5756344242614064 O
   0.4916851386534493    0.3616344620954715    0.8284769741598513 O
   0.0245615400525038    0.0942584926204825    0.9165452055446852 O
   0.2405168883241991    0.3884026280385843    0.7398683654473487 O
   0.2680449661938485    0.1310643865528086    0.5140105526525324 O
   0.2716284602306797    0.1259456791159208    0.7582961802296485 O
   0.2035833980430014    0.3797638542546824    0.9666685204553606 O
   0.0194695760098883    0.6570793794953005    0.1757172832826416 O
   0.4575854543657484    0.9108354807667831    0.0708903394355700 O
   0.4446511584551522    0.8260282393526113    0.3269328711227147 O
   0.0381342478843975    0.5740264413649664    0.4105576840521576 O
   0.2293650839627855    0.9018280836488120    0.2332380793525230 O
   0.2691871023540695    0.6226684867553860    0.0169816339661765 O
   0.2682275722638700    0.6153800585576880    0.2537307043208735 O
   0.2210623037583658    0.8813904982217512    0.4843618501410581 O
   0.0367927492164730    0.6652253821911963    0.6720462711348751 O
   0.4769238122628322    0.9073622085751784    0.5711132673112471 O
   0.4744362095782630    0.8400502507929060    0.8260433801418321 O
   0.0422834870879414    0.5935892625981362    0.9313524922530279 O
   0.2388663201330248    0.8740409511305719    0.7273410918402125 O
   0.2721720753986140    0.6188762503293903    0.5187507046243424 O
   0.2860265109916130    0.6355387890227948    0.7661164829380090 O
   0.2196004936341493    0.8715455812490474    0.9823679037564698 O
   0.5310474942331507    0.1750107818582081    0.1740942552561256 O
   0.9662609976921575    0.4109707799374805    0.0736166852338432 O
   0.9608317321855665    0.3309346322541788    0.3286943115913727 O
   0.5401761366915921    0.0893622006598667    0.4329018123836030 O
   0.7190179789718526    0.3676871426425087    0.2369818513744754 O
   0.7692202660437575    0.1343609869366287    0.0101542034921240 O
   0.7781085413703186    0.1161838456441788    0.2701686033076745 O
   0.7288434000581466    0.3844642792595211    0.4967962167787552 O
   0.5440002327462247    0.1644209783538135    0.6787298854077265 O
   0.9625704909955880    0.4248896532406214    0.5823256227764622 O
   0.9607716513772991    0.3269418494522127    0.8422603880439967 O
   0.5144374436411774    0.1029353702129138    0.9308889053886344 O
   0.7296683564760017    0.3773974070514612    0.7457556341913508 O
   0.7740780327621006    0.1431764325291055    0.5215217974642814 O
   0.7742134139456920    0.1248503139216795    0.7551904326622683 O
   0.7183266771044952    0.3692323047005174    0.9868236466017912 O
   0.5379793015557588    0.6497546619515878    0.1919447195214891 O
   0.9680122153934716    0.9074557968792980    0.0647032086799866 O
   0.9784274857651298    0.8536625746312968    0.3126138200586265 O
   0.5332908539735548    0.5890234901662786    0.4324941593188574 O
   0.7110221255049528    0.8830922774462926    0.2517569050510144 O
   0.7594618079610411    0.6221031369766945    0.0166174006912163 O
   0.7966890507196492    0.6373045520917207    0.2731596392007570 O
   0.7449634853952246    0.8769880278351574    0.4918304335843208 O
   0.5529472084878855    0.6699726013445664    0.6798779502114114 O
   0.9822244313306662    0.8971305235955980    0.5895761592198289 O
   0.9718868963344751    0.8436371659290189    0.8273895832938020 O
   0.5192707299030690    0.5967158760668105    0.9490579078752756 O
   0.7434293326085538    0.8827666283357694    0.7437420176377459 O
   0.7767569670407386    0.6267147485895310    0.5080550257286899 O
   0.7859482033391124    0.6274252557342787    0.7787376115558153 O
   0.7083832239604145    0.8800191430175514    0.9906821303077795 O
   0.1373189313362113    0.0151259495919766    0.1026980863544144 Zr
   0.3482899065417847    0.2613708251851031    0.1520734052839459 Zr
   0.3627774364196711    0.4732318340543751    0.3938913097482538 Zr
   0.1420048776314728    0.2380807063492788    0.3595906220964208 Zr
   0.1243622593016515    0.0279454467816379    0.5942091837498076 Zr
   0.3740403796771352    0.2727465794834026    0.6565895836037848 Zr
   0.3569928165076138    0.4780162975355268    0.8987885962802536 Zr
   0.1399061580286731    0.2259056315142590    0.8578289431549064 Zr
   0.1361279165698129    0.5212760602617461    0.0999658627667286 Zr
   0.3592791921289096    0.7673751099915262    0.1324908894872494 Zr
   0.3659953220026800    0.9807574063440244    0.3972473373375955 Zr
   0.1358234605425737    0.7326022787939487    0.3514555732927538 Zr
   0.1432033907538512    0.5152883185422978    0.6097872191659074 Zr
   0.3691038366934219    0.7576457459302469    0.6316042426008452 Zr
   0.3634194440481045    0.9710356821471057    0.8864025792000000 Zr
   0.1350438883096412    0.7479765457786203    0.8374424975871565 Zr
   0.6331142616910952    0.0382673776255638    0.0983229260983396 Zr
   0.8573011554952639    0.2750060686191765    0.1405093305536329 Zr
   0.8763528423780316    0.4832849372639160    0.4018500248890183 Zr
   0.6402553152516416    0.2293750837758815    0.3568015166775944 Zr
   0.6462396749121094    0.0107721260232157    0.6061410942805963 Zr
   0.8580517697100140    0.2807178203360423    0.6500747187516316 Zr
   0.8675523011002041    0.4794583214603293    0.8998048848622463 Zr
   0.6429550975718232    0.2277602079760092    0.8563054583182793 Zr
   0.6150006524154563    0.5119649786343672    0.1089029452784634 Zr
   0.8565383468948844    0.7593723547073524    0.1425978415075279 Zr
   0.8631608853688157    0.9755527504630934    0.3894649558402573 Zr
   0.6303244542872886    0.7332593069115972    0.3599091603079604 Zr
   0.6443422213968262    0.5151574859038480    0.5995086736499287 Zr
   0.8629481941628230    0.7717919051169767    0.6550651507356650 Zr
   0.8611921430910827    0.9812826468454360    0.8884484287854085 Zr
   0.6383745562035840    0.7193136941003222    0.8628004145382978 Zr
