0,0,0,0,0,0,0,0,0,0,0,0,0,0,0,0,0,0,0,0,0,0,0,0,0,0,0,0,0,0,0,0,0,0,0,0,0,0,0,0,0,0,0,0,0,0,0,0,0,0,0,0,0,0,0,0,0,0,0,0,0,0,0,0,0,0,0,0,0,0,0,0,0,0,0,0,0,0,0,0,0,0,0,0,0,0,0,0,0,0,0,0,0,0,0,0
1.0
  10.7071228386986306   -0.0000000000000000   -0.0000000000000000
  -0.2424429327037482   10.4076984282273113   -0.0000000000000000
  -1.3253713611922642    0.0978066283858905   10.3665625345477839
O Zr
64 32
direct
   0.0316875904147594    0.1515473686782648    0.1797428619651193 O
   0.4728462756132993    0.4153848480540800    0.0723176835235001 O
   0.4497640246829815    0.3189297346302636    0.3227313935116241 O
   0.0184153950423923    0.0926648001555501    0.4128208796829184 O
   0.2195440594923472    0.3707339761661139    0.2354570558818780 O
   0.2839261759527117    0.1397026395572965    0.0003189043609183 O
   0.2866746515764375    0.1355538377158223    0.2585064395135008 O
   0.2259131738148083    0.3880900991370840    0.5139182213916392 O
   0.0498550281532955    0.1796383137596251    0.6696544346271894 O
   0.4612804703050751    0.4272038319121537    0.5437839751039429 O
   0.4843184450146251    0.3505105934719894    0.7975818268346249 O
   0.0494122494251473    0.0858666198109767    0.9373330322194287 O
   0.2459630405003818    0.3736327023448694    0.7431947473354131 O
   0.2872146438756451    0.1321325780079306    0.4893457799240768 O
   0.3060517269730691    0.1223303066031668    0.7385271288226473 O
   0.2267794766208227    0.3713156284612050    0.9983594701048581 O
   0.0356334128727889    0.6673385036482608    0.1652619802070903 O
   0.4552659945829313    0.9223854052064888    0.1011752278544233 O
   0.4595362123578068    0.8153966641324515    0.3241465404758284 O
   0.0230369966627140    0.5971321185485303    0.4265227206670085 O
   0.2059732383046342    0.8885694759257937    0.2609827100433365 O
   0.2828176787335065    0.6255281927099569    0.9835737874651994 O
   0.2801027817162183    0.6160196080424042    0.2389802511916329 O
   0.2227228901522303    0.8932265083653300    0.4963287492505777 O
   0.0120963005798078    0.6931161889700675    0.6724989273509567 O
   0.4639521793162678    0.9001024012735368    0.5749560183172140 O
   0.4333958479214969    0.8226949700962032    0.8410992524418663 O
   0.0204950306996008    0.5760114656732651    0.9140725597729064 O
   0.1983171783523194    0.8913957339430689    0.7587528446374361 O
   0.2757346009976898    0.6380499269571259    0.5028071879110483 O
   0.2700607581138033    0.6248426058325591    0.7556593996412642 O
   0.2220168926992528    0.8674402412927202    0.0073384230545539 O
   0.5253731835216900    0.1763619903604600    0.1862279267468110 O
   0.9808108010749806    0.3928682296777880    0.0659251002559849 O
   0.9640580564771850    0.3410801981233016    0.3339342458855876 O
   0.5354216302944117    0.0825229773134798    0.4160799773334081 O
   0.7235697327663591    0.3705194322878929    0.2410759939151825 O
   0.7680929124214602    0.1403586670562837    0.0041145308541623 O
   0.7642708863602371    0.1207827301036529    0.2398416449921565 O
   0.7318533403670017    0.3644349679125762    0.5002144872245451 O
   0.5620947340191659    0.1815348816409442    0.6554613152002184 O
   0.9509160602515536    0.4413980548730266    0.6011565887275915 O
   0.9856550511914123    0.3498173783615358    0.8131143663011438 O
   0.5162803955673546    0.0983207488947033    0.9100883767843453 O
   0.7503396885441298    0.3886822402347589    0.7360584309765954 O
   0.7862780771398942    0.1209782034159489    0.5074558746902385 O
   0.8087678782523847    0.1241973151103767    0.7599862469689600 O
   0.7188033344013396    0.3666423860376504    0.9874453266438082 O
   0.5419608632561677    0.6809367714054227    0.1533444549629917 O
   0.9696857123774490    0.9099189756065943    0.0754908311112733 O
   0.9480229461255898    0.8115825507538090    0.3518588096820000 O
   0.5340834963897820    0.5861741707918907    0.4157855889004219 O
   0.7393171704568803    0.8608971297783262    0.2476812751906103 O
   0.7797620404258468    0.6020170442687520    0.0081554124829951 O
   0.7597562846073030    0.6054669098283143    0.2690324824651878 O
   0.6918142256178483    0.8659079212418973    0.4838650435265823 O
   0.5574162934829925    0.6890837175930490    0.6810494440824768 O
   0.9639190109794337    0.9326072290805886    0.5893990366080917 O
   0.9260990983923136    0.8304891108009866    0.8309717224481855 O
   0.5482033202579127    0.6008155985536143    0.9311205843819343 O
   0.7061377404410752    0.8969710141815741    0.7286390852345832 O
   0.7662764840700820    0.6249303304343228    0.5122474960434555 O
   0.7624139190739828    0.6187037903308018    0.7772018174056636 O
   0.7334507733853473    0.8889575619557588    0.9831288917647557 O
   0.1467176212148931    0.0363072700539866    0.1084478526756933 Zr
   0.3612810562458925    0.2792934683179863    0.1358079916662958 Zr
   0.3509255213522326    0.4675209174621273    0.3900412732306335 Zr
   0.1352282390607169    0.2283292852564479    0.3665469938985670 Zr
   0.1542585288428908    0.0159204525999488    0.6109897302979324 Zr
   0.3855458791279505    0.2744762431138514    0.6372546685928208 Zr
   0.3570687728419158    0.4714904559694804    0.8897178332221718 Zr
   0.1522419749774710    0.2111886596960716    0.8574789869135503 Zr
   0.1482903674847238    0.5126361576463968    0.1070629964852101 Zr
   0.3695542577899611    0.7431087266533654    0.1342101534875554 Zr
   0.3630712105334293    0.9773553608558934    0.3780376086035886 Zr
   0.1328751693312569    0.7313030921927881    0.3589496898802360 Zr
   0.1304656947918499    0.5129374726074348    0.6165935229540226 Zr
   0.3703170514386089    0.7698027527169928    0.6453990996729042 Zr
   0.3548926369265885    0.9668856196093725    0.9045754564494183 Zr
   0.1215856622744092    0.7431249366388933    0.8615796000491324 Zr
   0.6278062139002184    0.0319602296787722    0.0980429727995980 Zr
   0.8545797022711987    0.2618305501809545    0.1482925222875782 Zr
   0.8697891948203529    0.4827287410612335    0.4254682232033054 Zr
   0.6359195842610073    0.2423928748315168    0.3480005227072478 Zr
   0.6288481170764973    0.0157399496804288    0.5993571276103858 Zr
   0.8709215074442949    0.2746259470641388    0.6525221638182189 Zr
   0.8620673575512563    0.4671433202368713    0.8884437276682833 Zr
   0.6394735302138163    0.2398173947676544    0.8402530040282032 Zr
   0.6457776080065900    0.5226749040784069    0.1024834105287481 Zr
   0.8488620749798057    0.7767177402842009    0.1492173374004036 Zr
   0.8509598267611524    0.9756580803949834    0.4017401369856949 Zr
   0.6307202735832425    0.7215933130451815    0.3415145113533469 Zr
   0.6406610591370584    0.5220770418094469    0.6023227834193912 Zr
   0.8472150197351748    0.7824884938349590    0.6373976031764942 Zr
   0.8768587066324695    0.9852887166971749    0.9145411201354963 Zr
   0.6419377853741643    0.7274403488647428    0.8591251010080856 Zr
