1,1,1,1,1,1,1,1,1,1,1,1,1,1,1,1,1,1,1,1,1,1,1,1,1,1,1,1,1,1,1,1,1,1,1,1,1,1,1,1,1,1,1,1,1,1,1,1,1,1,1,1,1,1,1,1,1,1,1,1,1,1,1,1,1,1,1,1,1,1,1,1,1,1,1,1,1,1,1,1,1,1,1,1,1,1,1,1,1,1,1,1,1,1,1,1
1.0
  10.0081249682398017   -0.0000000000000000    0.0000000000000000
  -0.2030455521607510   10.0187794233920346    0.0000000000000001
   0.0545493348107809   -0.5258786872384814   10.2912403782344821
O Zr
64 32
direct
   0.1153637594459339    0.1297945049015826    0.1561295954176954 O
   0.3611763018724329    0.0909734960794666    0.1139617551525117 O
   0.3707501445816670    0.3632844912006643    0.1667215534804513 O
   0.1299723742658015    0.3734949701472733    0.1015001574454721 O
   0.1129659249374943    0.3835023086835730    0.3435354465703888 O
   0.3973926422978802    0.3616447883887701    0.4026502292730321 O
   0.3482686235753062    0.1244671717179842    0.3655345682582684 O
   0.1221208512807100    0.1237547222987458    0.3846957080094155 O
   0.1514323613909739    0.1438831191176900    0.6604856494826233 O
   0.4134796139421794    0.1340964163528436    0.5941102042889909 O
   0.4070996440431543    0.3845763286027647    0.6658854338970978 O
   0.1501338178469669    0.3808585673447213    0.5632581027219619 O
   0.1319629559746462    0.3806466792481035    0.8189059912179210 O
   0.3651176147846409    0.3655491666805629    0.9092090525442790 O
   0.3917037386050128    0.1299179442914791    0.8579587177531987 O
   0.1515577447081760    0.1311503943039374    0.9040683054083076 O
   0.1359314838701270    0.6309108155450536    0.1507602859788773 O
   0.3681967958770205    0.6115211111604764    0.0964162651859294 O
   0.3471800242017989    0.8386748659158807    0.1416368407041389 O
   0.1111843154174434    0.8835572349385009    0.0993399579765123 O
   0.1211702707557033    0.8687221525726903    0.3696572608046141 O
   0.3637034075670149    0.8672097770108307    0.3865023025516363 O
   0.3762621508829454    0.6069062273820395    0.3588443591707792 O
   0.1251183874090143    0.6141988712260296    0.4049463280746863 O
   0.1359266240525925    0.6640946291456882    0.6666054051568956 O
   0.3829366257869886    0.6533330467647529    0.5894894363881096 O
   0.3791858177646036    0.8863759297481099    0.6611446707911085 O
   0.1457026352223399    0.8900460647822815    0.6019327491175289 O
   0.1292715884189548    0.8813790642257316    0.8592120010529726 O
   0.3662178777226910    0.8665624491721863    0.8892336595843813 O
   0.3727271188058469    0.6241819106678627    0.8470534388679286 O
   0.1253759578023974    0.6303188896361696    0.8738895102888334 O
   0.5923714818087736    0.1332099854346568    0.1047925974191474 O
   0.8582852060719003    0.1214890748510477    0.1030640950087264 O
   0.9010652175454700    0.4173548333265152    0.1710680466198598 O
   0.6151679190605238    0.3779154611803293    0.1144341172508921 O
   0.6360039054738552    0.3462245838642459    0.3453229942540390 O
   0.8719131094863559    0.3956654627548767    0.4151811575441025 O
   0.8411708687688713    0.1724433012765373    0.3296921897360323 O
   0.6332940706019435    0.0913921208586319    0.3840062117349911 O
   0.6405876864149209    0.1281829890459433    0.6308915929348693 O
   0.9039470899958051    0.1497984903610242    0.5954653882792023 O
   0.8827689723550425    0.3912099810371825    0.6588380962162688 O
   0.6355198675441758    0.3704119012027949    0.6125437540388554 O
   0.6253035568024591    0.3802977442734574    0.8589529637744694 O
   0.8952091360915143    0.3543229856373661    0.9216637933810671 O
   0.9006307497688050    0.1175497058722363    0.8448078142346845 O
   0.6453775236551975    0.1258590237695020    0.8684763930791898 O
   0.6082543410680119    0.6192278115460474    0.1708490077462982 O
   0.8746686266504131    0.6551331235885580    0.1060487377506219 O
   0.8830634773643210    0.8991378134772678    0.1426263250059085 O
   0.6037755322211522    0.8752624964924172    0.0900160445245498 O
   0.6247650889057985    0.8598354882147892    0.3593814805863562 O
   0.8681516098648033    0.8949923881835448    0.3880308129567833 O
   0.8580762338678040    0.6558970870783215    0.3322044703892645 O
   0.6695803924244501    0.5873804480685582    0.4199352534549779 O
   0.6117747936866296    0.6087247715120684    0.6656483005088658 O
   0.8718732589739951    0.6203193268115706    0.6123256675091940 O
   0.9164757024372684    0.9085133755915601    0.6502422489278221 O
   0.6599414281411201    0.8828428415956455    0.5861219517870021 O
   0.6307757125924324    0.8747045893111791    0.8443735458631622 O
   0.8647779237737880    0.8607481621538952    0.9012417515886610 O
   0.8657042051987981    0.6254328279787945    0.8733019147048463 O
   0.6168396966754647    0.6363664479504034    0.8901669556543392 O
   0.0006049947909851    0.0062317382871606    0.0038941972227915 Zr
   0.9960121539717629    0.2543652639934766    0.2638014870920493 Zr
   0.2460258152141710    0.9989720957211496    0.2400424356741922 Zr
   0.2446368790526658    0.2462921332818320    0.0217061051233867 Zr
   0.0178173826175641    0.0004184640559079    0.5086174271053198 Zr
   0.0039485500036836    0.2508496711998950    0.7431785384467032 Zr
   0.2663835954767423    0.0022948303145128    0.7624206273516339 Zr
   0.2744819972528000    0.2383521615959592    0.5096373863827456 Zr
   0.9871821757136292    0.4926800782350473    0.0110661965918959 Zr
   0.9885137660263537    0.7659661473639520    0.2551484992278908 Zr
   0.2418036047884553    0.4952596699677843    0.2555941957164988 Zr
   0.2278005233717270    0.7394208460172504    0.9955917191740629 Zr
   0.0000218165511507    0.5061398319247405    0.4927228235990257 Zr
   0.0014214443201470    0.7599040095977351    0.7734744717395847 Zr
   0.2418492870816152    0.5145687013595783    0.7301123934478563 Zr
   0.2593339425671935    0.7566761180598595    0.4937256407056815 Zr
   0.4836544230688186    0.0165317564787252    0.9770301543111914 Zr
   0.4876239229224787    0.2452443563853644    0.2535904661909878 Zr
   0.7454577127258729    0.9845384343802690    0.2387567727206786 Zr
   0.7120085530250114    0.2498135578615666    0.0001262905103984 Zr
   0.5078981143050197    0.9715977093220376    0.4925885432451316 Zr
   0.5251145078009017    0.2599122609818969    0.7415186047193627 Zr
   0.7638511542897871    0.0018090136761829    0.7480002507064758 Zr
   0.7640309675802808    0.2429096995130872    0.4990178103663170 Zr
   0.4954181000535502    0.4819058603174649    0.9897820261436238 Zr
   0.4738959072432044    0.7371872733778998    0.2294028604552928 Zr
   0.7538564512954063    0.4942109211076905    0.2496934789255052 Zr
   0.7396035751951018    0.7514245980456120    0.9961786481231499 Zr
   0.5053204665024821    0.4873459412970488    0.5080164987164465 Zr
   0.4912610111961250    0.7503807090082336    0.7624253890711350 Zr
   0.7621881243573646    0.5225611590904569    0.7573465442206597 Zr
   0.7534880770359429    0.7466260131259953    0.4963245845663815 Zr
