2,2,2,2,2,2,2,2,2,2,2,2,2,2,2,2,2,2,2,2,2,2,2,2,2,2,2,2,2,2,2,2,2,2,2,2,2,2,2,2,2,2,2,2,2,2,2,2,2,2,2,2,2,2,2,2,2,2,2,2,2,2,2,2,2,2,2,2,2,2,2,2,2,2,2,2,2,2,2,2,2,2,2,2,2,2,2,2,2,2,2,2,2,2,2,2
1.0
  10.3588437326819793    0.0000000000000000    0.0000000000000000
  -0.4474718790611656    9.8234835290188034   -0.0000000000000000
   0.4056578758989506   -0.5139674802005478   10.6824340713463002
O Zr
64 32
direct
   0.1261801834087055    0.1454494212734503    0.1471857831463166 O
   0.1678554084850070    0.3370975772602226    0.3336781080410421 O
   0.1355021570946195    0.1005796694321592    0.3869381353531784 O
   0.1639974667761365    0.4055352734054555    0.0819630905795661 O
   0.4221697322288137    0.4091964098043779    0.1882078187304568 O
   0.4161387307447845    0.3438645563325188    0.4408730102095966 O
   0.3823222178499171    0.1051677689873896    0.3733050806179625 O
   0.3676037724716280    0.1430846651799602    0.1058045850085509 O
   0.1406097889999399    0.1318927034307338    0.6339465164652796 O
   0.1900565018530053    0.3454458984619755    0.8158132056228709 O
   0.1178056769665881    0.1185670083120849    0.8918913976034720 O
   0.1606549930526127    0.3802048523627090    0.5836420189873677 O
   0.4251923337620368    0.3924493232481311    0.6737842607619187 O
   0.4256243511306482    0.3524988892790215    0.9275326109034683 O
   0.3755861290812879    0.1227884072703768    0.8550167444514722 O
   0.3930936823553742    0.1407620520141947    0.6117313668359879 O
   0.1168004470184387    0.6273867985521467    0.1315291309373766 O
   0.1909386608939008    0.8338604448300051    0.2958025255382419 O
   0.1117723376000880    0.5943950269847851    0.3771424490516189 O
   0.1756149599668950    0.8978162873457454    0.0642370003893240 O
   0.4242773082302192    0.9079112354911411    0.1738829034931644 O
   0.4197614306910272    0.8465226220459934    0.4309969849146701 O
   0.3695518164528990    0.6152926350101534    0.3625226424366723 O
   0.3809832025466737    0.6415596690194703    0.1078489761139994 O
   0.1257425023970662    0.6454939521638166    0.6186887237270877 O
   0.1719856241194790    0.8609018029009515    0.8199492460800278 O
   0.1349587072992869    0.6159854390731021    0.8792791206822985 O
   0.1854845094027986    0.9073204491125174    0.5680704315861232 O
   0.4270922826402571    0.9000334893742179    0.6743220594379161 O
   0.4422553678510936    0.8458757912237417    0.9223559441877492 O
   0.3827611010748595    0.6081019093002443    0.8625071741948795 O
   0.3639801328087384    0.6413826450244732    0.6040046459268088 O
   0.6203472272393802    0.1543895323682824    0.1410450485008340 O
   0.6565868197316819    0.3509421647595038    0.3426902528628137 O
   0.6229740651962886    0.1033917351704812    0.3859665061036388 O
   0.6682101509214093    0.4045779716319445    0.0569678336824319 O
   0.9219144263796969    0.4103984513884771    0.1802183420503312 O
   0.9268017146769461    0.3334304976572735    0.4371736358127070 O
   0.8767850449527452    0.1042704149428960    0.3794278571465292 O
   0.8714168830549699    0.1427180523179931    0.1306586343035669 O
   0.6376973925777281    0.1375982134956884    0.6427601767107982 O
   0.6796693680264938    0.3342579841348359    0.8155854209453574 O
   0.6075958123124615    0.1140566562589839    0.8911995370920345 O
   0.6819561534624536    0.4042279569576527    0.5851079693312135 O
   0.9301072570464166    0.4098901998682056    0.6906715173361373 O
   0.9420128830373574    0.3317644357774892    0.9445058774632261 O
   0.8744229370595070    0.1019478051331726    0.8700467525121507 O
   0.8820523142591107    0.1462464181828544    0.6206225305787875 O
   0.6165539573252710    0.6433681288846220    0.1334005569126253 O
   0.6717311153357586    0.8440812146234494    0.3355013306296319 O
   0.6232991493563135    0.6048919874342555    0.3870685680701693 O
   0.6812575708339741    0.9086316952971791    0.0726866777285097 O
   0.9266232810742434    0.9043424625511041    0.1839895489616904 O
   0.9225197286654653    0.8380631297583364    0.4396754866101472 O
   0.8695942499211241    0.6069982659746551    0.3598364845434101 O
   0.8643289278965067    0.6419695199474097    0.1187041919688804 O
   0.6233893453142523    0.6358579727505655    0.6351279722660556 O
   0.6911624835289997    0.8465657827058083    0.8194483088250669 O
   0.6411634940772872    0.6065706049417877    0.8892931400139916 O
   0.6795261972700520    0.9040602956572600    0.5739578621080392 O
   0.9350776034369249    0.9108547950512361    0.6802652546756284 O
   0.9349249258424719    0.8485963497569553    0.9340911083238198 O
   0.8927639769180012    0.6077962372422955    0.8719644915558158 O
   0.8738331654704913    0.6422072614550067    0.6245279508623448 O
   0.4898615312608535    0.0208830368074924    0.0140378887619103 Zr
   0.2487543595705572    0.0148652199992162    0.2403100193602665 Zr
   0.2567433413839086    0.2427575652567466    0.4916066124373609 Zr
   0.4920897189608549    0.2465013338079614    0.2708577404339969 Zr
   0.5090645608302431    0.9982214052981603    0.5141421728809987 Zr
   0.2608530041115491    0.0005191086826263    0.7193213478200833 Zr
   0.2354759839809865    0.2550353663349963    0.9786839759061016 Zr
   0.4916668143612543    0.2409333134625649    0.7674623634505394 Zr
   0.4953362720197169    0.5060840028438940    0.0139450735951255 Zr
   0.2494241896872779    0.5047384167250660    0.2348639807223077 Zr
   0.2525152157253203    0.7421112513519326    0.4757741596021350 Zr
   0.5037777313779577    0.7494886573973909    0.2645998053741107 Zr
   0.5113113651766106    0.5072132008246423    0.5154947034750095 Zr
   0.2442022511497237    0.5192767972268386    0.7329553477050593 Zr
   0.2513156506706451    0.7479522887902460    0.9745536064411169 Zr
   0.5099206902167689    0.7363594801329957    0.7707042781554374 Zr
   0.0048095231594156    0.0002357762629740    0.0159936234344078 Zr
   0.7441309580339821    0.0081236451228359    0.2353743696246482 Zr
   0.7525165940124796    0.2355531906158223    0.4852551060721595 Zr
   0.9907835246170280    0.2460816529439243    0.2660099910115215 Zr
   0.9930264679048194    0.0087327426950208    0.5107537576604366 Zr
   0.7555920244664271    0.0139707058831808    0.7414977457007345 Zr
   0.7493513846587084    0.2294298540530250    0.9789864285941706 Zr
   0.0114687241810499    0.2406364919589766    0.7550532969293084 Zr
   0.9882075829709916    0.5190646547300752    0.0238759184373656 Zr
   0.7463697754929421    0.5057910632091558    0.2274378221642327 Zr
   0.7514127452116444    0.7358838358156522    0.4940196177531758 Zr
   0.0027482253198758    0.7440023229983808    0.2671281207767253 Zr
   0.0037294726168078    0.4978730652892239    0.5204568178251634 Zr
   0.7595917965343280    0.4922520320821408    0.7360450909021209 Zr
   0.7454210024753932    0.7429337940867885    0.9882773969762008 Zr
   0.0038056282821917    0.7564206734087573    0.7536922598470392 Zr
