1,1,1,1,1,1,1,1,1,1,1,1,1,1,1,1,1,1,1,1,1,1,1,1,1,1,1,1,1,1,1,1,1,1,1,1,1,1,1,1,1,1,1,1,1,1,1,1,1,1,1,1,1,1,1,1,1,1,1,1,1,1,1,1,1,1,1,1,1,1,1,1,1,1,1,1,1,1,1,1,1,1,1,1,1,1,1,1,1,1,1,1,1,1,1,1
1.0
  10.4945550337758053    0.0000000000000000   -0.0000000000000000
  -0.4480948647338463   10.5260984855563358   -0.0000000000000000
  -0.4403192766017306    0.1141282536776837   10.6330435405500729
O Zr
64 32
direct
   0.1158454615735976    0.1071932942394766    0.1607159905894258 O
   0.3386448621822424    0.0923119952748516    0.0967120934827660 O
   0.3832663415975336    0.3508974695459536    0.1416017261810355 O
   0.1211457303571938    0.3855694926037596    0.1117370608583567 O
   0.1374295829699994    0.3537347410422713    0.3580632499792283 O
   0.3877595815931156    0.3739981812786779    0.4009091891557768 O
   0.3505231953238945    0.1307218871750371    0.3652954420516800 O
   0.1049866358130143    0.1290639693405280    0.4059076433046113 O
   0.1199546806180861    0.1033638061855277    0.6399716713045612 O
   0.3735693253945292    0.1278329580327034    0.6116617410525097 O
   0.3623557188661536    0.3773637252494365    0.6466394601676108 O
   0.1124662721881330    0.3518117123063703    0.6149841755149733 O
   0.1302579430896295    0.3985725977506335    0.8584998085531927 O
   0.3772097270015257    0.3853813808191031    0.9051046158137077 O
   0.3707301045572531    0.1449511302689495    0.8577997957702472 O
   0.1260610035219023    0.1245414891691765    0.9082417808664781 O
   0.1294782051308271    0.6181643513295801    0.1775974720688775 O
   0.3649512715937576    0.6015149965351797    0.1041457899214727 O
   0.3498652914235371    0.8430154374427836    0.1808053069065627 O
   0.1232900097436408    0.8820500943750518    0.1132688760002664 O
   0.1593957759674686    0.8257725071305729    0.3577290010422757 O
   0.3831756970639225    0.8446314443591693    0.4044025680795387 O
   0.3762584466840476    0.6145044562738751    0.3543320768067777 O
   0.1169673095612103    0.6148046553944582    0.3975695647420727 O
   0.1095607736222368    0.6030189161341989    0.6557033364352531 O
   0.3856962000203281    0.6336957568124569    0.6178720863641008 O
   0.3755332903868958    0.8686883097627879    0.6488817930621459 O
   0.1270171571938941    0.8701941787016847    0.6070853955579739 O
   0.1206934823402024    0.8703530503127803    0.8673449905127443 O
   0.3715488294113918    0.8728959707258934    0.9117485297533608 O
   0.3803189321105701    0.6297454093724156    0.8734884860369450 O
   0.1146241969948292    0.6227501852036845    0.9017344314950468 O
   0.5829504103946934    0.1048599283925631    0.1656580999205498 O
   0.8282257576836997    0.1126729027507112    0.0946408960484648 O
   0.8746357610491972    0.3624317433185943    0.1407746988048695 O
   0.6220991040002720    0.3642056471717011    0.1012378241370685 O
   0.6308838267947608    0.3748812345122046    0.3614382092806875 O
   0.8703588983381091    0.3917459919088764    0.3987833658941869 O
   0.8495681603185169    0.1398224038334510    0.3616053337538662 O
   0.5980188464641382    0.1568372607888452    0.4111486666943375 O
   0.6262239178095842    0.1294294715065141    0.6541887112351793 O
   0.8675060320844531    0.1116992049760510    0.6004863664810770 O
   0.8740499829067405    0.3763062056331412    0.6464656507222764 O
   0.6232657869318869    0.3848628550773667    0.5989488213522856 O
   0.6388936849830358    0.3744163157575784    0.8467915456719933 O
   0.9100748513209316    0.3610896193502087    0.9043625831614468 O
   0.8808483232482819    0.1258943345320104    0.8652755120688648 O
   0.6203641870459363    0.1436821067337860    0.9034152261642160 O
   0.6029000060887959    0.5981572499463257    0.1367207366504204 O
   0.8565292709550818    0.6090189997285776    0.1001924844506831 O
   0.8699690293617344    0.8791153556272423    0.1065418773260656 O
   0.6233749502442317    0.8677662696281647    0.0892780150555925 O
   0.6015442367138751    0.8609162716462394    0.3408771244636973 O
   0.8596706402623394    0.8908640573373214    0.3514078760752163 O
   0.8506773375683814    0.6442631555072631    0.3358633903529799 O
   0.6359550475483345    0.6270865029279575    0.3775814781054026 O
   0.6284032854141314    0.6273983981152879    0.6160690520751049 O
   0.8643636881065553    0.6221868245224922    0.5769495110882087 O
   0.8815549607706353    0.8687360687153713    0.6199568447510541 O
   0.6388683435062867    0.8990883434668913    0.5975000909449235 O
   0.5929398283303176    0.9177367514553296    0.8342419304474236 O
   0.8552660954575778    0.8704300494302670    0.8885373283265272 O
   0.8652759815196835    0.6436149983333176    0.8272227027055855 O
   0.6258554916283726    0.6476472182534659    0.8918702677680755 O
   0.9919219956191584    0.0030656445721779    0.0168130357708242 Zr
   0.9917368078542671    0.2554458472020497    0.2836871307633103 Zr
   0.2481650439978913    0.9892806332734093    0.2550992963826119 Zr
   0.2631408861919955    0.2419154442583474    0.0042399865408308 Zr
   0.9966881438927303    0.0049728597193918    0.5022114480144174 Zr
   0.0147915097107597    0.2810037081726839    0.7665087701670752 Zr
   0.2418608625997240    0.0041346414103908    0.7422862269584658 Zr
   0.2534302245736078    0.2600911360928630    0.4996940759940809 Zr
   0.0109824995180784    0.5106326386347748    0.0013573456691830 Zr
   0.9904502402180817    0.7345149003402882    0.2462942242936137 Zr
   0.2547518804124196    0.4716233231833175    0.2422526771076067 Zr
   0.2476406702274167    0.7561886916008133    0.0242174138023589 Zr
   0.9954698033301878    0.5002835665639328    0.5230762218728082 Zr
   0.0119323665591176    0.7621215228051689    0.7368599341590464 Zr
   0.2740299267957161    0.5123188219812452    0.7543936785746510 Zr
   0.2570014244306239    0.7401036721604941    0.4909921435843117 Zr
   0.5054064449636388    0.0116145746029875    0.9815015086226293 Zr
   0.5081394265155246    0.2550062699267142    0.2645594963917991 Zr
   0.7280421005991630    0.9713105973245267    0.2260377835127028 Zr
   0.7599285097900842    0.2665999987135646    0.9956832136654922 Zr
   0.5039970686028785    0.0021129120072685    0.5129742638971482 Zr
   0.4955388610778362    0.2518103189605856    0.7459868402259597 Zr
   0.7624996957129508    0.0107546405952447    0.7462083995274913 Zr
   0.7368892024236052    0.2469301340052542    0.4985108347469235 Zr
   0.4963390671632334    0.4951782322770357    0.0037433881134978 Zr
   0.4995662076449753    0.7183002494664048    0.2454796118764852 Zr
   0.7497743722129238    0.4955018235326929    0.2367709944851555 Zr
   0.7613953918301762    0.7406836022668170    0.9939451191745292 Zr
   0.5134552900571404    0.5271348178839307    0.4977726220921869 Zr
   0.5059045025856523    0.7632287507054722    0.7573274292812134 Zr
   0.7391182783137767    0.4957815545245636    0.7230678678855724 Zr
   0.7510979773996082    0.7480628473836877    0.4798263189784757 Zr
