1,1,1,1,1,1,1,1,1,1,1,1,1,1,1,1,1,1,1,1,1,1,1,1,1,1,1,1,1,1,1,1,1,1,1,1,1,1,1,1,1,1,1,1,1,1,1,1,1,1,1,1,1,1,1,1,1,1,1,1,1,1,1,1,1,1,1,1,1,1,1,1,1,1,1,1,1,1,1,1,1,1,1,1,1,1,1,1,1,1,1,1,1,1,1,1
1.0
  10.1702599336277313    0.0000000000000000   -0.0000000000000000
   0.2698807264571985   10.5349207924797703   -0.0000000000000000
  -0.0227623916974025    0.4180294450825098   10.1872038996803091
O Zr
64 32
direct
   0.1148017502209101    0.1170039420578645    0.1435027525409476 O
   0.3632513363207863    0.1288530416426702    0.0793249509441310 O
   0.3782373640232061    0.3774128836892772    0.1614415084056197 O
   0.1332027852179246    0.3812503761736696    0.0941552083717595 O
   0.1496543389101114    0.3446590609135918    0.3366761170067120 O
   0.4067292577082952    0.3545811206647735    0.4124368635177561 O
   0.3561705626315562    0.1392131980427965    0.3439695921969290 O
   0.1344604836092690    0.0992542953158859    0.3997007674920280 O
   0.1328544544736156    0.1174010586279844    0.6559771760737714 O
   0.3738212717394097    0.1175025331244212    0.6082067777984141 O
   0.3757600201590072    0.3586225378667839    0.6605593790668286 O
   0.1347571013878291    0.3741871653733467    0.5839439508407879 O
   0.1213273412907614    0.3854186364998253    0.8432547663220505 O
   0.3936507554959026    0.3643021828486968    0.9026446294638873 O
   0.3596538700668140    0.1267259799574204    0.8530501453762709 O
   0.1025168957055849    0.1448977216076721    0.9034878389436024 O
   0.1038532368475419    0.6060388403344794    0.1375171124575177 O
   0.3757522144295535    0.6450792036729739    0.1153221563609684 O
   0.3690314800842496    0.8830213002014072    0.1400257084620408 O
   0.1139431198137088    0.8738739592428075    0.1037046035304303 O
   0.1204374879679164    0.8392828625398091    0.3393740049326484 O
   0.3437253003517478    0.8941054381459883    0.4085171822594617 O
   0.3848302795274813    0.6386531356718002    0.3664742987147984 O
   0.1305722538822122    0.5840549748269874    0.4030659572573057 O
   0.1167278143244266    0.6232670642559713    0.6537783304905684 O
   0.3730143543026562    0.6241891162227071    0.5998339562332469 O
   0.3471890934596162    0.8555109771837465    0.6486483281548303 O
   0.1014726840529714    0.8543488989859422    0.5930280511504816 O
   0.1396981290757358    0.8767318324876703    0.8637002061553042 O
   0.3838360245493975    0.8695642200384686    0.8943215209313624 O
   0.3748057695523064    0.6116248165408456    0.8648024970008178 O
   0.1094548245204945    0.6432712012436992    0.9038119296590246 O
   0.6140972818186139    0.1276031489716671    0.1455725354477825 O
   0.8762410471511040    0.1204209007862801    0.1198689866154854 O
   0.8897459374094975    0.3698735233164087    0.1442474919782566 O
   0.6192090598694975    0.3674400866918239    0.1003725876569613 O
   0.6609541089908154    0.3446219836903021    0.3396799312722692 O
   0.8823587887848470    0.3717820245285278    0.4015831705133911 O
   0.8759990694888508    0.1068379532171010    0.3636234476190515 O
   0.6142221735171387    0.1362733646301432    0.4092485374157312 O
   0.6462110346555701    0.1338584666161605    0.6750096186173122 O
   0.8712112292750473    0.0941632024459476    0.6058454088460606 O
   0.8850800617412757    0.3504479861237666    0.6507123749342081 O
   0.6314689360416558    0.3830281313971677    0.5827737825770138 O
   0.6340350700950316    0.3629703300063438    0.8462719648686472 O
   0.8674293526244251    0.3638699404955143    0.9047564772399660 O
   0.8672693351420373    0.1119770513346825    0.8703445438917977 O
   0.6105242084762275    0.1236095418761859    0.9096990997000485 O
   0.6203008864895960    0.6382160147343020    0.1318536510535685 O
   0.8548279757234505    0.6147812589958729    0.0820374659749597 O
   0.8642163186218403    0.8628942229425806    0.1374224664968111 O
   0.6238466397790435    0.8831822934019854    0.1106481754660249 O
   0.6199027942118693    0.8685445964356214    0.3575364694343952 O
   0.8619253365901933    0.8814982069494326    0.3899551014704501 O
   0.8862587271092287    0.6256243949946202    0.3303596940673401 O
   0.6413197685018286    0.6176771851780559    0.4013938785919777 O
   0.6087757247444865    0.6304044294906277    0.6428481559111144 O
   0.8748974857126059    0.6295379933551937    0.5851341955064885 O
   0.8642094886151092    0.8574214298338680    0.6456330416441751 O
   0.6195886135425934    0.9136012269057190    0.6017115791598480 O
   0.6130776582158990    0.8555968402219362    0.8520941255600476 O
   0.8798941292359242    0.8718083676895949    0.8804429812268182 O
   0.8705409121233127    0.6296023906306216    0.8266496580935494 O
   0.6297204523091122    0.6031780399337111    0.8927469562855617 O
   0.9990938097179072    0.0132658655607983    0.9969406882116804 Zr
   0.9968103188306694    0.2337191340765415    0.2618723463249537 Zr
   0.2347524177164890    0.9886923586445496    0.2621935689913717 Zr
   0.2587765061395128    0.2641585576341204    0.0010707613401497 Zr
   0.9889362877340333    0.9966542042124501    0.4987233882262274 Zr
   0.0094751172885933    0.2466951860705774    0.7612406941755001 Zr
   0.2508780821379121    0.0053217770526810    0.7475313699806263 Zr
   0.2684448796444757    0.2497482025852377    0.4993639215034896 Zr
   0.9999521255361465    0.5043652918466498    0.9802199015878507 Zr
   0.9883411007506607    0.7491159371951509    0.2268246597942851 Zr
   0.2180754735460805    0.4926810883335321    0.2422165788668895 Zr
   0.2604957183842262    0.7589618910740631    0.9954206167031003 Zr
   0.0002315047673449    0.5052844166735031    0.5051832141360695 Zr
   0.0152204303437127    0.7607698935028866    0.7516078384904304 Zr
   0.2554483376114851    0.5083315788864076    0.7316193761306664 Zr
   0.2415668208375269    0.7466483504979485    0.4991115322683943 Zr
   0.4896524647308503    0.9960687743869437    0.0086051057251098 Zr
   0.5100673783121569    0.2596585537412391    0.2624258818049078 Zr
   0.7543857813052041    0.9994792762331548    0.2590826804971310 Zr
   0.7433592106229424    0.2366560403547736    0.0156516409968984 Zr
   0.5030558804846363    0.0013462899873072    0.4935637492695899 Zr
   0.5094429198328091    0.2394875692540528    0.7738372113026410 Zr
   0.7534256763943479    0.9896680750048306    0.7526326917379763 Zr
   0.7568397079691195    0.2537349796713796    0.5011449864236263 Zr
   0.5039720781580451    0.5160094909955091    0.0081148874425292 Zr
   0.4875136944452547    0.7580534991374617    0.2479842464308855 Zr
   0.7751158512755284    0.4956131160222629    0.2388695534872297 Zr
   0.7422176224664370    0.7665734544672816    0.9953441351181951 Zr
   0.5181472855629340    0.5120802811755633    0.4868725665592743 Zr
   0.4983451218594847    0.7490651999424308    0.7503611886515675 Zr
   0.7457584971713402    0.4924498435581240    0.7481632990814272 Zr
   0.7399959162995797    0.7611640829174630    0.5038581706665437 Zr
