0,0,0,0,0,0,0,0,0,0,0,0,0,0,0,0,0,0,0,0,0,0,0,0,0,0,0,0,0,0,0,0,0,0,0,0,0,0,0,0,0,0,0,0,0,0,0,0,0,0,0,0,0,0,0,0,0,0,0,0,0,0,0,0,0,0,0,0,0,0,0,0,0,0,0,0,0,0,0,0,0,0,0,0,0,0,0,0,0,0,0,0,0,0,0,0
1.0
  10.0626503316533764    0.0000000000000000    0.0000000000000000
   0.2406226341670470   10.5047382819242987    0.0000000000000000
  -1.5668313541888113    0.4308082895974875   10.2967550344822563
O Zr
64 32
direct
   0.0312704710971396    0.1845756681073424    0.1513152996242318 O
   0.4525717929638466    0.4122040896045124    0.0794656168239262 O
   0.4552434510438393    0.3538517334275114    0.3193994255944117 O
   0.0102496060516388    0.1264372128383617    0.4232777719004120 O
   0.2007346808293616    0.3852847553487616    0.2250182918638796 O
   0.2911421981518845    0.1375449164643183    0.0187710246726015 O
   0.2973799853603971    0.1174079445413755    0.2644399922773255 O
   0.2137348739971156    0.3743218607397882    0.4810202229841670 O
   0.0488790909544517    0.1645049486789187    0.6796733844656232 O
   0.4647526531417159    0.4165123945552390    0.5747577486286753 O
   0.4384277900832930    0.2940598052284050    0.8314530852612906 O
   0.0628849769518977    0.0919480580662429    0.9202879144998979 O
   0.2175586247056143    0.3855800521814681    0.7474673967017412 O
   0.2494734107023006    0.1534000844333361    0.5137267890306743 O
   0.2707513981886968    0.1099535926469859    0.7439139283636610 O
   0.2394837059536414    0.3694286409174896    0.9847736871803574 O
   0.0244907386888844    0.6352989476614122    0.1963885367990284 O
   0.4646488160605859    0.8905650697185148    0.0490253968953805 O
   0.4783225778780660    0.8654733578026695    0.3006549271039992 O
   0.0615142372496922    0.6118872096772949    0.4551086550963703 O
   0.2340253078802435    0.8862075486333577    0.2306378831143487 O
   0.2640005793976358    0.6158860208348803    0.9859575502381049 O
   0.2634306911295757    0.6177619128443356    0.2586089969007302 O
   0.2406787618464682    0.8707801824731606    0.5005398699143814 O
   0.0411153338243837    0.6593741570522115    0.6845601081112275 O
   0.4749455161069861    0.9050989736930611    0.5713893763420810 O
   0.4630936289629308    0.8479183401640156    0.8147136373844803 O
   0.0047798332857698    0.6130295919412327    0.9325258640168096 O
   0.2430046724159707    0.8846837412974317    0.7313518258695423 O
   0.2879258914356125    0.6335101303630208    0.5066348855372480 O
   0.3048274258914725    0.6371918760274706    0.7426671138617129 O
   0.2292704867053351    0.8669034651854870    0.9832327860472463 O
   0.5323018351545514    0.1706664304964714    0.1706179049920785 O
   0.9481559375568250    0.4279239131943125    0.0755541708523434 O
   0.9675844714543953    0.3561336585634807    0.3166878154408733 O
   0.5347144311120025    0.1110742062451503    0.4438525602672844 O
   0.7174889866196881    0.3602820110733146    0.2348180472200168 O
   0.7652840168714066    0.1101267955967687    0.0249481590500824 O
   0.7625948267943424    0.1091557233487032    0.2622413894433076 O
   0.6856850412357056    0.4193375901335566    0.4447310618213864 O
   0.5368828318843847    0.1619504418532584    0.6679747503428723 O
   0.9543342046916899    0.4221504816831642    0.5810322228570747 O
   0.9585299183607890    0.3203847599628288    0.8368105354011903 O
   0.5483868916436666    0.0644992717494102    0.9254367792463598 O
   0.7430340535751386    0.3826053152546828    0.7299546795402547 O
   0.7842171074403665    0.1584693465905071    0.4995279488707995 O
   0.7724602617388070    0.1063305277670792    0.7658924400833369 O
   0.7030827861766923    0.3588963875092387    0.9855723249523993 O
   0.5133774680872095    0.6479749424509423    0.1847321835015029 O
   0.9724417778993248    0.9318611948893513    0.0855653303248950 O
   0.9980560912262642    0.8717389506872028    0.3226362575369399 O
   0.5376236193932573    0.5936772388246921    0.4483192943933248 O
   0.7449694844846467    0.8553367264225762    0.2501904151232956 O
   0.7731137067312429    0.5981634790416729    0.0394136502753468 O
   0.7592684958695853    0.5990313866978704    0.2847573374117306 O
   0.7183990483272960    0.8947758888587811    0.4941611029844072 O
   0.5658570849784293    0.6594252661177603    0.6718504925127459 O
   0.9477074708488270    0.9217264564311006    0.5981615938879810 O
   0.0001708526792423    0.8437737735135427    0.8095224918127932 O
   0.5282045388440584    0.5870756511598745    0.9375413092737915 O
   0.7097803235735233    0.8802647000311440    0.7287116233291341 O
   0.7868368579954060    0.6517891930949998    0.5330275152433954 O
   0.7692047623898149    0.6310124113908997    0.7937855692427840 O
   0.7275198803402112    0.8352574888176030    0.9896688669851798 O
   0.1569228665094733    0.0234520666623929    0.0943780633360346 Zr
   0.3523395188408843    0.2695889738111376    0.1555170739264380 Zr
   0.3456301642025836    0.4958743626335400    0.3855576397423365 Zr
   0.1125235212157283    0.2358882237038354    0.3404054783630426 Zr
   0.1406233914617359    0.0016191539742849    0.6033546186050820 Zr
   0.3755775700417353    0.2572518132111737    0.6425442442734264 Zr
   0.3797217165687874    0.4680161359147019    0.9013122808322349 Zr
   0.1481759098866459    0.2283988526379141    0.8346119325671726 Zr
   0.1262458975806207    0.5206594201543389    0.0988996685741980 Zr
   0.3648535053020604    0.7605227841191146    0.1354693864939692 Zr
   0.3613752453699376    0.0029321367375730    0.4104582261641142 Zr
   0.1178317012712329    0.7290926015798989    0.3459414475406240 Zr
   0.1722289046453733    0.5178824942426380    0.6154610277779275 Zr
   0.3711907602317243    0.7718396563325527    0.6365911042992576 Zr
   0.3602258175983313    0.9933917777832066    0.9057639817852530 Zr
   0.1471653066770263    0.7249111228243201    0.8428999135878157 Zr
   0.6131106681327286    0.0051614570651175    0.1181257926236718 Zr
   0.8594308238896261    0.2577629038616032    0.1303571651267793 Zr
   0.8653835396660521    0.4902145068251866    0.3997827879768517 Zr
   0.6296774212606012    0.2487961022107652    0.3449464388251899 Zr
   0.6357337999501438    0.0205164187182705    0.5968734381189469 Zr
   0.8709574384762305    0.2810014389117307    0.6440203148072112 Zr
   0.8583869836093035    0.4914515355168723    0.9090900732466222 Zr
   0.6366432897595221    0.2108798006386505    0.8673372900872414 Zr
   0.6415556636436290    0.4937239960167013    0.1105453107302396 Zr
   0.8837663362767708    0.7780096563343728    0.1462181114397759 Zr
   0.8721310300053912    0.9671936492448338    0.3990978386334535 Zr
   0.6351632134827110    0.7449316796564167    0.3740788659049299 Zr
   0.6450589573810018    0.5214800045969035    0.6089112584113505 Zr
   0.8556766616032835    0.7674348120343891    0.6644344360421124 Zr
   0.8557484068637563    0.9685944162275755    0.8759560010988957 Zr
   0.6103681389026219    0.7232150590139250    0.8539633957740487 Zr
