0,0,0,0,0,0,0,0,0,0,0,0,0,0,0,0,0,0,0,0,0,0,0,0,0,0,0,0,0,0,0,0,0,0,0,0,0,0,0,0,0,0,0,0,0,0,0,0,0,0,0,0,0,0,0,0,0,0,0,0,0,0,0,0,0,0,0,0,0,0,0,0,0,0,0,0,0,0,0,0,0,0,0,0,0,0,0,0,0,0,0,0,0,0,0,0
1.0
  10.4737696723997349    0.0000000000000000   -0.0000000000000000
   0.2753969748446953   10.3104597253273038    0.0000000000000000
  -2.1572170846522982    0.0437908817463240   10.4573580160864186
O Zr
64 32
direct
   0.0358474071788571    0.1651637589702706    0.1760195558063973 O
   0.4679138888478487    0.3970639533252993    0.0667929953364454 O
   0.4757789574089232    0.3464738942214003    0.3126978998108136 O
   0.0427299778654247    0.0679703443860673    0.4080268649152404 O
   0.2315003308149343    0.3752267447925321    0.2512501327255207 O
   0.2671336956629691    0.1184298565149536    0.0249267491941098 O
   0.2752542501096327    0.1165362081607957    0.2607216014031387 O
   0.2331072141739932    0.3741508082291469    0.4978624541295398 O
   0.0319738123456833    0.1565639175515797    0.6665544762049388 O
   0.4742289466355660    0.4131035374445179    0.5789785196592017 O
   0.4717533716339405    0.3475852171488791    0.8154880044253739 O
   0.0358790175953659    0.0797876665043405    0.9168942420877679 O
   0.2244834228404630    0.3742540981385089    0.7470875944843848 O
   0.2634923493813603    0.1229028834628933    0.5097767945975951 O
   0.2538772423184002    0.1175270261919224    0.7590883326638513 O
   0.2308652564226459    0.3622542971758823    0.9981546202820318 O
   0.0467804131832536    0.6762929234979259    0.1539387672033105 O
   0.4640820993753994    0.9094440734284291    0.0666424164619746 O
   0.4726619877064351    0.8427226169588642    0.3335045594150173 O
   0.0283223033328561    0.5962795857904347    0.4209134170819256 O
   0.2304510486787790    0.8780123799110008    0.2354611868420564 O
   0.2801340721954442    0.6269930318907719    0.0018525370146264 O
   0.2831967027954857    0.6244547779848779    0.2633847398992253 O
   0.2376483369481548    0.8724691547189672    0.4787020983310888 O
   0.0322093578022508    0.6605899879739098    0.6827526244790468 O
   0.4649216342783477    0.9148562734503268    0.5760115649989259 O
   0.4574611141494996    0.8340414825546422    0.8235391325755707 O
   0.0326921283163879    0.5731962036258783    0.9209606314506056 O
   0.2245026068964758    0.8746325045102956    0.7382361006503196 O
   0.2800414488381718    0.6193103666224197    0.5130637056364181 O
   0.2668887660710442    0.6176290364095781    0.7521613242943790 O
   0.2218785195927789    0.8609303328077395    0.9921827339505193 O
   0.5322799343095396    0.1588774202652169    0.1747824543912885 O
   0.9567638594271479    0.4230098049479699    0.0853455289402061 O
   0.9796853342907667    0.3381083678799556    0.3199429657235856 O
   0.5296026935673972    0.1069197262392032    0.4347161648388602 O
   0.7341482330730357    0.3769080750045600    0.2275524725116512 O
   0.7595097065809130    0.1322362745210182    0.0115415196854060 O
   0.7795266105314743    0.1207060600919051    0.2543243724570615 O
   0.7329479029776178    0.3740972505012728    0.4851999663772504 O
   0.5230450617914061    0.1545774995534932    0.6896530489351089 O
   0.9664395138931501    0.4106810064908917    0.5702684902177417 O
   0.9469524135109264    0.3237941078167617    0.8305743754530575 O
   0.5222208487199094    0.0931060396894664    0.9354450667225928 O
   0.7172070555692347    0.3873939136719284    0.7290902849048057 O
   0.7717996672356413    0.1220708258495651    0.5027016758452116 O
   0.7682964909787589    0.1149237378951673    0.7474047025909351 O
   0.7182940298828374    0.3744214660514934    0.9751595349335057 O
   0.5243845193306047    0.6672598382890590    0.1702745821708401 O
   0.9696223790891503    0.9089008450161866    0.0813215788913249 O
   0.9630574050902942    0.8303402607729951    0.3345584217082511 O
   0.5220178317543805    0.6143514945376460    0.4312801939995022 O
   0.7349670427512012    0.8770808579339997    0.2412593283044342 O
   0.7708400035835523    0.6330890493645029    0.0099658162644605 O
   0.7691103733016930    0.6166334364428638    0.2698588723135363 O
   0.7175828162406519    0.8675973139512388    0.4868120908616628 O
   0.5395724287123295    0.6708998512353911    0.6923076426056418 O
   0.9678973502882813    0.9035393335568910    0.5626958725184926 O
   0.9659174692391697    0.8236771051685405    0.8467991076405758 O
   0.5356321996834346    0.5834477272203151    0.9283319709496858 O
   0.7314844427920121    0.8761483795835580    0.7391285606087187 O
   0.7775307953438849    0.6319643370081971    0.5162813086244999 O
   0.7800948848291154    0.6191276964963532    0.7720527377259568 O
   0.7284425212533159    0.8806969611845565    0.9913092625071633 O
   0.1398979760163290    0.0193668945553831    0.1147778140476434 Zr
   0.3624722591527705    0.2581026812728837    0.1474067198358088 Zr
   0.3697749454011784    0.4762461898030177    0.3946466114913106 Zr
   0.1405187143948496    0.2305711382500503    0.3604150754810357 Zr
   0.1343344597592013    0.0096045252034078    0.6010545611263557 Zr
   0.3544336797595339    0.2694865683337013    0.6499167439371558 Zr
   0.3699825103684067    0.4746786697764296    0.8992586636255686 Zr
   0.1354030799138730    0.2323347178338349    0.8566959189423210 Zr
   0.1406262079947340    0.5277276025775576    0.1084366012099465 Zr
   0.3516456712220176    0.7758701353161156    0.1338831031744634 Zr
   0.3623613867179920    0.9775149934593927    0.3934493859510986 Zr
   0.1465869218631995    0.7308213886262318    0.3590355602461352 Zr
   0.1320538844690699    0.5273861720374940    0.6048408699855430 Zr
   0.3628036327945773    0.7731865104264769    0.6435992667313095 Zr
   0.3565213413720063    0.9780505707640521    0.8939096004191686 Zr
   0.1338174200677813    0.7195847853304113    0.8612151842698827 Zr
   0.6442061876480298    0.0227025848262134    0.0984401002353034 Zr
   0.8656994264171420    0.2703358409249300    0.1361712186012464 Zr
   0.8666022669425658    0.4822905623355682    0.3889614516633172 Zr
   0.6409789248819749    0.2322687270534914    0.3463968081256964 Zr
   0.6369987077345117    0.0241337239129237    0.5984293996507928 Zr
   0.8560625116714516    0.2759364493912526    0.6373966700046581 Zr
   0.8588940397019803    0.4778902208755603    0.9026091861711392 Zr
   0.6470226503870649    0.2307796308538441    0.8424478906190292 Zr
   0.6383421098895197    0.5226061445229983    0.1103136154012753 Zr
   0.8655227037948654    0.7729349803697537    0.1464117219229522 Zr
   0.8629739005174356    0.9771133104682838    0.3964903957884859 Zr
   0.6334338168446015    0.7314851219378744    0.3506806159413118 Zr
   0.6323661446260769    0.5310854810485048    0.6050867711869786 Zr
   0.8669730006247321    0.7629875881740296    0.6608883048919885 Zr
   0.8581704429737350    0.9779836236083345    0.8995273510316686 Zr
   0.6366281944310437    0.7386102129683324    0.8586849653408475 Zr
