1,1,1,1,1,1,1,1,1,1,1,1,1,1,1,1,1,1,1,1,1,1,1,1,1,1,1,1,1,1,1,1,1,1,1,1,1,1,1,1,1,1,1,1,1,1,1,1,1,1,1,1,1,1,1,1,1,1,1,1,1,1,1,1,1,1,1,1,1,1,1,1,1,1,1,1,1,1,1,1,1,1,1,1,1,1,1,1,1,1,1,1,1,1,1,1
1.0
  10.0683840821588841   -0.0000000000000000    0.0000000000000000
  -0.4155726395888747   10.2283062197005119    0.0000000000000001
  -0.1937001472614618    0.4358584170224239   10.1582311399076790
O Zr
64 32
direct
   0.1455098718170796    0.1410846882193416    0.1521845952516936 O
   0.3762289514581334    0.1308480486323124    0.0880734005337991 O
   0.3717600215292061    0.3727535491287908    0.1541553511563660 O
   0.1312398212546979    0.3797830971663250    0.0750975588361079 O
   0.1293781721818084    0.3848080914650798    0.3276771224296292 O
   0.3946344877587227    0.3431285391991550    0.4121586369256460 O
   0.4181651488247546    0.1030217902851068    0.3308356659652207 O
   0.1281600801230499    0.1198580001515709    0.4050509614449859 O
   0.1387991858748789    0.1308927670923371    0.6540596372628300 O
   0.3803002759228329    0.0996894870464888    0.6161190141472682 O
   0.3578117494744441    0.3657794131006576    0.6452269550404784 O
   0.1111991446269059    0.3524785866358160    0.6023075300347621 O
   0.1560099614807875    0.3600000377621547    0.8425568673738395 O
   0.3874911992772587    0.3767762665654305    0.9039836810883451 O
   0.3614436664258078    0.1556949879578423    0.8431379022231856 O
   0.1369521188987164    0.1256500133244695    0.8994011259112810 O
   0.1137140721272002    0.6441829569534998    0.1439796211718502 O
   0.3613620066217896    0.6534562052896215    0.1079078347404056 O
   0.3920038755337275    0.8888172558677634    0.1416383364863143 O
   0.1405869522769135    0.8808991713993255    0.0948041653744800 O
   0.1368986511744193    0.8661313849000533    0.3696840369625740 O
   0.4091514620100663    0.8425686431866227    0.4145961257422496 O
   0.3895774128161988    0.5819406885882863    0.3464264502384598 O
   0.1416232540601895    0.6202216376310984    0.3983100046822495 O
   0.1377162213397080    0.6168949728067632    0.6421569955002309 O
   0.4152244237757718    0.6337742485011575    0.6106496664395034 O
   0.3674563554905513    0.8669577043284750    0.6423141606678680 O
   0.1088105953912714    0.8636038195656355    0.6046478622119463 O
   0.1079385853467894    0.8687192229402294    0.8539565806019688 O
   0.3748669826068565    0.8932414673317912    0.8892996921885458 O
   0.3621251369183642    0.6432963648016409    0.8558187496685580 O
   0.1248635516426092    0.6149633296068356    0.8992982541725295 O
   0.6288756324601946    0.1025232766279423    0.1240825114077347 O
   0.8794506820346683    0.1189859901165141    0.0822859124278203 O
   0.8711631841855159    0.3896425462312496    0.1620107518064367 O
   0.6135945557660545    0.3636611189343871    0.1170196041838445 O
   0.6259067153457858    0.3799016983121636    0.3560078101484179 O
   0.8719088159562592    0.3796810224139135    0.4037269640073649 O
   0.8679366498218246    0.1368694869598683    0.3423734940364439 O
   0.6545420862375614    0.1214027314268020    0.3939446231911957 O
   0.6329916753853083    0.1296289844285664    0.6390422677130575 O
   0.8827510990748593    0.0925023550276962    0.5809397353458561 O
   0.8864889793430629    0.3480884000852901    0.6584250187538838 O
   0.6344216940781349    0.3878858883307956    0.6044621215574945 O
   0.6258600525992816    0.3937167871145968    0.8706637137989341 O
   0.8937576739418487    0.3727370227406494    0.8909923133804827 O
   0.8878256725454270    0.1166596578724704    0.8268355883932302 O
   0.6283049859828012    0.1292090197273930    0.8980342652434375 O
   0.6522157539924828    0.6298098594990719    0.1482764215004551 O
   0.8748096832391921    0.6306527053158331    0.0956886718674167 O
   0.8549517690187604    0.8760491623953928    0.1500909647556865 O
   0.6118067893742625    0.8663870578497161    0.1174329961949302 O
   0.6377308603740137    0.8629690118115098    0.3632031171062260 O
   0.8955804374030790    0.8719078438166941    0.3942789563593647 O
   0.8805180923203501    0.6250910894522876    0.3664092864531755 O
   0.6169620505031957    0.6290807541141007    0.4182547402577231 O
   0.6584656453416657    0.6466337231800455    0.6757617651199053 O
   0.8672853156854626    0.5999243159052288    0.5911688062312173 O
   0.8507054592711711    0.8494368159033765    0.6704143394754348 O
   0.6168337279505969    0.9098718750512986    0.6125861317678735 O
   0.6262771008772078    0.8754814323365481    0.8782181193487864 O
   0.8835492264377773    0.8557012893539633    0.9070879312048952 O
   0.8619939548795258    0.6186185779305328    0.8556892074695397 O
   0.5939777323937401    0.6331413850243177    0.9149680972788410 O
   0.9928217084399378    0.9922481455395812    0.9734306807464385 Zr
   0.9912954478360437    0.2535778717350440    0.2328455674834641 Zr
   0.2431399990733296    0.0091328485835166    0.2208152885680829 Zr
   0.2608805912540375    0.2540542205849326    0.0049582418637954 Zr
   0.0138507923069194    0.9952228955037292    0.4854252263297895 Zr
   0.0211821413563321    0.2471228587409989    0.7573419154419752 Zr
   0.2630426317562629    0.9971258536398087    0.7674643045256453 Zr
   0.2447634737208744    0.2352744101938396    0.5201215794493153 Zr
   0.9804755239503605    0.5132890978370437    0.0074118520205954 Zr
   0.9785234658025099    0.7588206824443332    0.2569889942299271 Zr
   0.2357070127251771    0.5046039945121797    0.2422726197803732 Zr
   0.2319108040282160    0.7466630932051499    0.9840321854490552 Zr
   0.0154862145582081    0.4927322145899128    0.4904564166124378 Zr
   0.0009099174951222    0.7483925311740481    0.7554302155374801 Zr
   0.2510289193115031    0.5106594577524342    0.7470585511375722 Zr
   0.2550331660823515    0.7695064509401695    0.5028981825025127 Zr
   0.5059222170425289    0.9988026404775908    0.0053350096245686 Zr
   0.4996966292129273    0.2622863064341133    0.2677924323569510 Zr
   0.7428221660482385    0.0046873472412113    0.2435289885737413 Zr
   0.7332465820193849    0.2543264199320269    0.9933096927042067 Zr
   0.5048723052949134    0.0142160449374688    0.4926176757428537 Zr
   0.5072268296050242    0.2470411989401037    0.7465060917750409 Zr
   0.7481835209690932    0.9960878894959070    0.7460717444030200 Zr
   0.7709374417724832    0.2386778741196117    0.5043793451077709 Zr
   0.4765596850473845    0.4974461239276832    0.0188393834875605 Zr
   0.4890118328501292    0.7534437732776881    0.2458226474577635 Zr
   0.7504777725765573    0.5061662243113335    0.2624326240054652 Zr
   0.7304108481461522    0.7466728146148510    0.0109389097638715 Zr
   0.4917007735036609    0.4925455636149496    0.4972354740144164 Zr
   0.5111387230239861    0.7566868340162302    0.7528650895582502 Zr
   0.7651415400477609    0.4809488994544745    0.7359712631984811 Zr
   0.7437622259250153    0.7450833648813383    0.5137368637240349 Zr
