1,1,1,1,1,1,1,1,1,1,1,1,1,1,1,1,1,1,1,1,1,1,1,1,1,1,1,1,1,1,1,1,1,1,1,1,1,1,1,1,1,1,1,1,1,1,1,1,1,1,1,1,1,1,1,1,1,1,1,1,1,1,1,1,1,1,1,1,1,1,1,1,1,1,1,1,1,1,1,1,1,1,1,1,1,1,1,1,1,1,1,1,1,1,1,1
1.0
  10.7506965560767025   -0.0000000000000000   -0.0000000000000000
   0.2764562859042674   10.3740083392498281   -0.0000000000000000
   0.0702798412747729   -0.5039308233381848    9.9877831356617666
O Zr
64 32
direct
   0.1164652774533163    0.1186408541499503    0.1367812563452784 O
   0.3746974507570547    0.1080790634336802    0.0997421065184145 O
   0.3556918859151962    0.3554694502731806    0.1523624398958450 O
   0.1245022284895789    0.3763169383376138    0.1063816981073849 O
   0.1488218589157978    0.3623532481072749    0.3398059898078802 O
   0.3837031675617721    0.3652244239832463    0.3957433946565271 O
   0.3805871173562231    0.1253988002295967    0.3414405802248175 O
   0.1417848926860492    0.1046439936850344    0.3885550203972132 O
   0.1170155129917584    0.0965678237302181    0.6419538158779994 O
   0.3795198164986027    0.1303889683014098    0.5932955958607101 O
   0.3744418448835138    0.3880201751226694    0.6551356883327497 O
   0.1255461150715008    0.3528236368201069    0.5886269762014078 O
   0.1229178623263559    0.3490246701649226    0.8515092638158788 O
   0.3740340462044294    0.3717238374048318    0.9055042781724124 O
   0.3789812880926621    0.1273392585515208    0.8480374319960440 O
   0.1262846404329206    0.1059747051711207    0.8817864667439501 O
   0.1175530658057569    0.6354164155334039    0.1338036252537689 O
   0.3631746990377187    0.5923546309080769    0.0882431930618409 O
   0.3705306848119064    0.8572003622398543    0.1517449279598901 O
   0.1177686722796242    0.8715708755615053    0.0926089833385949 O
   0.1377371493129761    0.8441888526521769    0.3544236253148737 O
   0.3862280072411777    0.8878477013828980    0.3910843340053352 O
   0.3786290983296717    0.6244780451821246    0.3579575906924330 O
   0.1439331527215045    0.6162479263446157    0.3951555156427112 O
   0.1541749483005204    0.6250175491736812    0.6312391234536219 O
   0.4147465982388724    0.6566882873967296    0.5963277132974484 O
   0.3639844428305858    0.8775737111690656    0.6460833074618459 O
   0.1064107961037676    0.8545340612939379    0.5815036032032529 O
   0.1419253783483891    0.8469136892948195    0.8294403813215259 O
   0.3748652530872921    0.8769610375528086    0.8999495384422406 O
   0.3887879683382956    0.6180976543308516    0.8505409362732564 O
   0.1461379972616876    0.6095338820361247    0.8972280887741005 O
   0.6334954691171655    0.1172291682825429    0.1532810605922877 O
   0.8560735500942068    0.1195579133820389    0.0776627091181436 O
   0.8652343864897931    0.3813441790151609    0.1522104516638839 O
   0.6141699091475247    0.3731911321883144    0.1023898562383275 O
   0.6551273355118000    0.3437671890903995    0.3360110635079022 O
   0.8958641649262701    0.3720116379139634    0.4041992934033118 O
   0.8945695504488939    0.1288221628414969    0.3273658963845094 O
   0.6348925210545920    0.1141248252193224    0.3960999456600511 O
   0.6358983594362697    0.1330230746143649    0.6461301466045912 O
   0.8750459447096609    0.1099141575018718    0.5990510747612031 O
   0.8848692100604953    0.3748652530887727    0.6554281939929466 O
   0.6404641437018115    0.3814280801824901    0.6168069327019702 O
   0.6122060365456916    0.3887362618067964    0.8472287398978785 O
   0.8578403525129377    0.3688185157045955    0.8975779484829608 O
   0.8754303291056096    0.0998839684568673    0.8414369367605582 O
   0.6151337969373892    0.1483145495475638    0.9100581897343885 O
   0.6229141665075327    0.6262009458254438    0.1439648510855186 O
   0.8651612168689364    0.6155523271631546    0.0872585196196548 O
   0.8889998789911239    0.8811707296830236    0.1401976459120647 O
   0.6388427049298803    0.8857521234703458    0.1191315033915344 O
   0.6371559012933364    0.8559711126258032    0.3488669737890872 O
   0.8871101516124499    0.8677611773575502    0.3987085990364916 O
   0.8875277062440453    0.6132938248920680    0.3568363190200423 O
   0.6276331191777190    0.5935790025431171    0.3975586503297570 O
   0.6417314415237722    0.6350134948343105    0.6709673179098293 O
   0.8782127258454120    0.6086529198164150    0.6025821724353281 O
   0.8355333744340550    0.8563564726289267    0.6510664185010007 O
   0.6063446622037734    0.8638587976414245    0.6118811757214909 O
   0.6335930286113287    0.8776576123307934    0.8611045963634801 O
   0.8967178104849134    0.8695016387133859    0.8731279170212173 O
   0.8969860990990233    0.6097885123137512    0.8481578755002391 O
   0.6299647910666003    0.6498425377673417    0.9065529013911727 O
   0.9925706724271985    0.0072837561606061    0.9880654329751957 Zr
   0.0087936844364328    0.2657722767847855    0.2375771754021749 Zr
   0.2365190627980673    0.9870120480796502    0.2435611146095254 Zr
   0.2675537131250513    0.2525773553511612    0.0016282731291925 Zr
   0.0074528950536064    0.9994801512870058    0.4957870197561018 Zr
   0.9854023164416195    0.2434145677694793    0.7483666082127800 Zr
   0.2519100484167952    0.9985929711595561    0.7711332983192262 Zr
   0.2500008091415565    0.2391180476899316    0.4933810173656216 Zr
   0.0056459112488594    0.5122660918802385    0.9995744789805666 Zr
   0.9950899740955824    0.7486166464955477    0.2479974503607285 Zr
   0.2645664414527340    0.5010838227949627    0.2561350341364313 Zr
   0.2412565517780559    0.7466810661525546    0.0006259698989335 Zr
   0.0164152856820068    0.5057491177501494    0.4987713421522874 Zr
   0.9894412794493814    0.7535053526877149    0.7413684582278817 Zr
   0.2411267976588027    0.5040106075791702    0.7608965563103873 Zr
   0.2546397630340803    0.7495971193998030    0.4935301378941483 Zr
   0.5045062098114771    0.9983462139270194    0.9940433721023295 Zr
   0.4962507255069495    0.2422262931443039    0.2423557236597546 Zr
   0.7626905789582571    0.9997276075727144    0.2560862831980714 Zr
   0.7405670127202988    0.2615947792901032    0.0174332139509819 Zr
   0.4993423858442703    0.0083720713274858    0.4997597436089382 Zr
   0.4912859229054781    0.2712229256620905    0.7728156837767159 Zr
   0.7348100270428682    0.9900266364154015    0.7511540150398862 Zr
   0.7408684715531941    0.2500651984070169    0.4980228718062194 Zr
   0.5136807045370838    0.5150543421934618    0.9869183519819076 Zr
   0.4956643929520665    0.7580760149372909    0.2504436005892778 Zr
   0.7531560897063571    0.4917873787003564    0.2644351210600255 Zr
   0.7473366659411562    0.7642954326215624    0.0077885378009708 Zr
   0.4787983077989120    0.4999872540916011    0.5045306446640342 Zr
   0.4882849928995584    0.7621149779484071    0.7557136620087310 Zr
   0.7588525885066485    0.4923356630519812    0.7440640985751243 Zr
   0.7412684654748518    0.7505746655168194    0.5102517111333268 Zr
