1,1,1,1,1,1,1,1,1,1,1,1,1,1,1,1,1,1,1,1,1,1,1,1,1,1,1,1,1,1,1,1,1,1,1,1,1,1,1,1,1,1,1,1,1,1,1,1,1,1,1,1,1,1,1,1,1,1,1,1,1,1,1,1,1,1,1,1,1,1,1,1,1,1,1,1,1,1,1,1,1,1,1,1,1,1,1,1,1,1,1,1,1,1,1,1
1.0
  10.6539848914969504   -0.0000000000000000    0.0000000000000000
  -0.1905882715036381    9.9651914160438260   -0.0000000000000000
   0.4608653429859605    0.1154752062581852   10.4160403026246904
O Zr
64 32
direct
   0.1360931044748288    0.1114541195924778    0.0976306873105848 O
   0.3852787839501780    0.1155780667775954    0.1418061365342262 O
   0.3903915478058147    0.3670913431447104    0.1225952483573077 O
   0.1462527110808643    0.3990349688474450    0.1650539233288858 O
   0.1180093924861678    0.3947675463065133    0.4138190150256862 O
   0.3442806996909809    0.3649217630361084    0.3508946888078966 O
   0.4053042604427423    0.1360514190637336    0.4117340756179031 O
   0.1742604586509973    0.1526305786286707    0.3578552519003542 O
   0.0639926642335511    0.1249640697539316    0.6056970811365077 O
   0.3270180933112741    0.1450845502042276    0.6526276899281058 O
   0.3915597086832105    0.3659823173940934    0.6069147997350813 O
   0.1229854669810218    0.3584159309824567    0.6500003813151481 O
   0.1141859680099689    0.3403351272776214    0.9255448337186956 O
   0.3812643821363123    0.3619698544360689    0.8591459251021724 O
   0.3823133033509122    0.0910664647559083    0.8980606780047568 O
   0.1401491916942588    0.0925743132403140    0.8722425741008927 O
   0.1232956839784897    0.6445387603517757    0.1367633377475545 O
   0.3820059946449532    0.6358875838830498    0.0877163492320370 O
   0.3834203902615871    0.8800409620354227    0.0744230795175267 O
   0.1296134469808773    0.8893988515888888    0.1419628631839483 O
   0.1075133943198815    0.8858158452958148    0.3986117804338533 O
   0.3708410910886737    0.8576675306491461    0.3535419444442877 O
   0.4350463149061083    0.5820785071346460    0.3081092625084514 O
   0.1573138858304689    0.6384982537891418    0.3729855479554000 O
   0.0888615974623873    0.6480616621112884    0.6020116301508459 O
   0.3385862789640075    0.6182362368299258    0.5839443716118616 O
   0.4027566033638192    0.8747827839588206    0.5915888328261616 O
   0.1365836351021712    0.8849045828709694    0.6445567422495705 O
   0.1122509895032250    0.8682672576145392    0.8928526038495204 O
   0.3421159667124161    0.8284499368003364    0.8222154265994861 O
   0.1574689943322764    0.5978103865255879    0.8375727388364302 O
   0.9127291085179153    0.6435887208034168    0.9267749004741758 O
   0.6311829492607913    0.1311053968408638    0.1309872482114148 O
   0.9016349732140764    0.1425126574265356    0.1519610737586287 O
   0.8912989306947156    0.3975963375310685    0.1136988736402619 O
   0.6641212082029189    0.3458502037948707    0.1659999823987146 O
   0.6182081234195949    0.3853640936164660    0.4106284403222046 O
   0.8708226701242872    0.3891758849588687    0.3759833013811554 O
   0.8923837207425573    0.1259024761704140    0.3772504126169553 O
   0.6270657880764948    0.1140386149403402    0.3862816672460580 O
   0.5839747085232951    0.1199143187282520    0.6098441633524928 O
   0.8383264703970126    0.1254681723770676    0.6468345029350798 O
   0.8559361320424899    0.3964650149223200    0.5978360521829842 O
   0.6359602909925381    0.3511733335561230    0.6435014494530141 O
   0.6222128309464580    0.3262842362241499    0.8795042423358879 O
   0.8763241746486037    0.4080235062985773    0.8619404088075268 O
   0.8776910682884734    0.1550124635007260    0.8965162080879163 O
   0.6042551446109276    0.1030865977934639    0.8630137489132849 O
   0.6024471611822478    0.5893385542648399    0.1271612181710013 O
   0.8404853868036032    0.6674822154668584    0.1633365791577527 O
   0.8860795297395425    0.9069833081045977    0.1340372438601446 O
   0.6319071120616807    0.8539429878455431    0.1231347679863344 O
   0.6306080783920366    0.8535300114655093    0.3605348027266857 O
   0.8740111191825960    0.8967975269387279    0.3609166458440743 O
   0.9129452909865429    0.6350732642712256    0.4116371900576825 O
   0.6340699061796049    0.6108084786413034    0.3788518740471493 O
   0.6062463499517995    0.5860880617998646    0.6222958584335226 O
   0.8430398298708079    0.6365244981571471    0.6789824638848490 O
   0.8832856379177156    0.8730484770683247    0.6151196774637577 O
   0.6460336184966877    0.8430912095636267    0.6208986165760451 O
   0.5912454193573097    0.8661073717848637    0.8800190656511020 O
   0.8317925249296119    0.9054147734195467    0.8884091657813767 O
   0.6647561836141531    0.6027825833061349    0.8886428309774865 O
   0.4258464421279725    0.5926772646722316    0.8337315110629626 O
   0.9839820747100448    0.0179560743058137    0.0021602954430130 Zr
   0.0157339608850698    0.2618434413804311    0.2613125837669940 Zr
   0.2592298631920832    0.0154027460707757    0.2484258534932857 Zr
   0.2527618388265367    0.2257099473840695    0.9955617533648521 Zr
   0.9872199646022686    0.9852617198202487    0.4988398995528752 Zr
   0.0188824598081224    0.2379693352778491    0.7543879307974611 Zr
   0.2568712445921911    0.9863183964584624    0.7609429043110327 Zr
   0.2656164555906300    0.2544525214502813    0.5044098697924662 Zr
   0.0180201535050057    0.4866383095604553    0.0015211451511000 Zr
   0.0028910063424722    0.7608963082802556    0.2600806172972823 Zr
   0.2674447970079150    0.5298825587576046    0.2492303836464465 Zr
   0.2388689645600536    0.7744440661403182    0.9985158132960763 Zr
   0.9966621944112966    0.4982355780638793    0.5098335618346105 Zr
   0.9951886636748856    0.7310708830042285    0.7592502564633129 Zr
   0.2961815545128338    0.4828798367778648    0.7386383270004536 Zr
   0.2292725956854884    0.7508200724890337    0.5171085280884282 Zr
   0.5264110366936253    0.0144934903635162    0.0211434265422826 Zr
   0.4896163927221530    0.2554452158423123    0.2453169666169704 Zr
   0.7507454265269070    0.0191001933611608    0.2784195353650115 Zr
   0.7698460686059572    0.2794957578565710    0.9935480533415605 Zr
   0.5029692955260910    0.9928329533717358    0.4673216947877425 Zr
   0.5087335150823584    0.2287568599363846    0.7414100141062270 Zr
   0.7177024693486488    0.9980678651732859    0.7539262995671375 Zr
   0.7553182189270171    0.2499698858706390    0.5112403022728467 Zr
   0.5120741643526642    0.4964227474936206    0.9990097397163402 Zr
   0.5063477524947595    0.7631541063544438    0.2116102878696225 Zr
   0.7559871243242373    0.4946167029208548    0.2467199076267434 Zr
   0.7535034495026176    0.7462181972507963    0.9977844222512392 Zr
   0.5132520195032558    0.5102952637675831    0.4856596629935556 Zr
   0.5177937902137033    0.7490993375917341    0.7394096121017579 Zr
   0.7485535495701577    0.4850969188710965    0.7486602840366314 Zr
   0.7441746427862251    0.7458052208765531    0.4798864230335636 Zr
