0,0,0,0,0,0,0,0,0,0,0,0,0,0,0,0,0,0,0,0,0,0,0,0,0,0,0,0,0,0,0,0,0,0,0,0,0,0,0,0,0,0,0,0,0,0,0,0,0,0,0,0,0,0,0,0,0,0,0,0,0,0,0,0,0,0,0,0,0,0,0,0,0,0,0,0,0,0,0,0,0,0,0,0,0,0,0,0,0,0,0,0,0,0,0,0
1.0
  10.7458638031702645    0.0000000000000001    0.0000000000000000
  -0.4953867193154342   10.1274743350570429   -0.0000000000000000
  -1.2694502294433241   -0.2557384016816530   10.9266430930685683
O Zr
64 32
direct
   0.0036647716493486    0.1725544032108055    0.1853682927819678 O
   0.4821486118197465    0.3980852308442165    0.0529979363714508 O
   0.4860001726586728    0.3281524100146692    0.3195059078862595 O
   0.0297971283624740    0.1178082064520308    0.4300728376294290 O
   0.2337048707275206    0.3883969005812640    0.2359065680231809 O
   0.2731454291466409    0.1347280813635172    0.0466763338708788 O
   0.2542236380795606    0.1211634682330952    0.2874472085294358 O
   0.2257317490416766    0.3576652127431147    0.4941845732497117 O
   0.0397888072456937    0.1750292534238553    0.6797042626029695 O
   0.4719363620638629    0.3761690678480544    0.5753100907256431 O
   0.4697037240404704    0.3329347752061553    0.8173756400047132 O
   0.0328981399128861    0.0860561539349965    0.9359539411228232 O
   0.2591309615140222    0.4192626467769018    0.7178809767087517 O
   0.3035815850040863    0.1098940100774378    0.5267888160318333 O
   0.2893417211629370    0.0940086662782496    0.7755915435524714 O
   0.2595534645690201    0.3529275336723715    0.9757465209020436 O
   0.0429197401015036    0.6436202261750124    0.2121329556074166 O
   0.4708714421884871    0.8740712804217888    0.0627416441042985 O
   0.4719920988083318    0.8272592461780198    0.3142486813793884 O
   0.0363898411659473    0.5964678168384137    0.4360841977004527 O
   0.2412183066283027    0.8696654195294414    0.2404936633161346 O
   0.2894477954972508    0.6182556260991764    0.0225553858399879 O
   0.2916286073125101    0.6156866498053897    0.2798803889860713 O
   0.2068721257585442    0.8611817128611324    0.5097467187734241 O
   0.0048159956867845    0.6461635317132775    0.6609670165470535 O
   0.4798455065008957    0.9034519263240588    0.5699235572222896 O
   0.4669228324849498    0.8149810227263993    0.8245913485556785 O
   0.0137605649656448    0.6075176474906553    0.9323550533981069 O
   0.2276786966941685    0.8828012361069658    0.7214392790316916 O
   0.2615428587951400    0.6163303200364800    0.5100893351532320 O
   0.2665802139099245    0.6410113176150598    0.7690412469709527 O
   0.2249333645881554    0.8761002202355810    0.0052988834088238 O
   0.5355653779482182    0.1420290321125098    0.1807660959341637 O
   0.9820393231755140    0.3924994663410912    0.0510300158567192 O
   0.9473883350930041    0.3833055356568563    0.2907997522510513 O
   0.5280676880507074    0.1157098605384527    0.4183294961285614 O
   0.7200422316097427    0.3830545327942518    0.2447051076003532 O
   0.7674615971555809    0.1196992848487992    0.0067591946282981 O
   0.7779071326906666    0.1158125435275912    0.2529279006516789 O
   0.7283436999923226    0.3713933580507399    0.4868093546017153 O
   0.5343643406524613    0.1265742913473624    0.6898921446223443 O
   0.9598056953283034    0.4142701617661753    0.5769221810126567 O
   0.9878592242928278    0.3305321833924884    0.8116974578428598 O
   0.5259570790878211    0.0674201420128297    0.9325022934869700 O
   0.7404970787052457    0.3845253715539741    0.7267408663267637 O
   0.7696134774147065    0.1100993760573066    0.5022676769758714 O
   0.7633718264932202    0.1522184173367409    0.7920673327465194 O
   0.7238009006657004    0.3721206958881507    0.9805412624849581 O
   0.5305150721263953    0.6400900230093211    0.1773720229527257 O
   0.9533619199631904    0.9267324420184403    0.0852368160712427 O
   0.9830584799658175    0.8563090246803600    0.3035369644043692 O
   0.5138778034962623    0.5859741857185536    0.4488053644500262 O
   0.7319034456542556    0.8707863755066653    0.2506975907392540 O
   0.7843431084716913    0.6378699787344053    0.0273832564449557 O
   0.7826251753085993    0.6529158890803213    0.2727694474244046 O
   0.7089242966534820    0.8477920411180836    0.4957711796714953 O
   0.5260882211256779    0.6559355296011605    0.6882979874368634 O
   0.9499543090220502    0.9093580997881237    0.5656479313597009 O
   0.9465540415233428    0.8509029554082926    0.8160976714849161 O
   0.5481503614258862    0.6048811666428634    0.9492621805666689 O
   0.7018422988105277    0.8976066020404101    0.7450137397792385 O
   0.7751358663921116    0.6153605362407302    0.5122554634872868 O
   0.7757932825617968    0.6282852822296774    0.7531648004701929 O
   0.7329346917553683    0.8941420018965202    0.9943497407170065 O
   0.1348576932496055    0.0063770630177759    0.1319833756824028 Zr
   0.3821531853415804    0.2712261012587218    0.1428413889156950 Zr
   0.3662530626882233    0.4540189373647869    0.4039698113870022 Zr
   0.1070844023823860    0.2604700580547011    0.3353040151026930 Zr
   0.1357190216744012    0.0170847501367788    0.6088515733546942 Zr
   0.3654673113736393    0.2521964712063188    0.6493199474228930 Zr
   0.3680645167825939    0.4889767908644479    0.8777790016756625 Zr
   0.1383012708383819    0.2143273647883418    0.8575948385231288 Zr
   0.1458429696498604    0.5140609142545883    0.0989953648056995 Zr
   0.3726864460593855    0.7402002336914748    0.1392802550552248 Zr
   0.3889348630146486    0.9895031242864752    0.4045974694830510 Zr
   0.1516260085400071    0.7234866755243387    0.3607708886181758 Zr
   0.1332413974052084    0.5300224145930158    0.6049346092665060 Zr
   0.3725750782400195    0.7665545836967812    0.6400683613924015 Zr
   0.3595053169120091    0.9597155494905998    0.9065899243001693 Zr
   0.1077387725187835    0.7400661753422276    0.8468444238258176 Zr
   0.6466805282501974    0.0023230054569220    0.1113206822204719 Zr
   0.8505339810831345    0.2873568383791518    0.1196888276720244 Zr
   0.8511329781999353    0.4855026830341733    0.4031835870245125 Zr
   0.6576278772185606    0.2402519674720869    0.3473144652365727 Zr
   0.6347055569447647    0.0323605562879608    0.5989959253955957 Zr
   0.8615392969405409    0.2628726498673016    0.6367762238627316 Zr
   0.8510841168051112    0.4965810367428707    0.8841546865961475 Zr
   0.6125205438286221    0.2259761795504409    0.8752542115672072 Zr
   0.6383117361571778    0.5299121254555992    0.0934029783170475 Zr
   0.8627159140201203    0.7634465217110651    0.1601987310000458 Zr
   0.8702628835279669    0.9835798369878674    0.3788861396531039 Zr
   0.6400576408975727    0.7400119815377787    0.3579384044657801 Zr
   0.6203608622823487    0.5143223755691647    0.6001153276672557 Zr
   0.8512633234767494    0.7695476027008950    0.6293085082244526 Zr
   0.8586689386733520    0.0007941793387773    0.9112780111959968 Zr
   0.6539029914631802    0.7516722055146371    0.8546556996836464 Zr
