1,1,1,1,1,1,1,1,1,1,1,1,1,1,1,1,1,1,1,1,1,1,1,1,1,1,1,1,1,1,1,1,1,1,1,1,1,1,1,1,1,1,1,1,1,1,1,1,1,1,1,1,1,1,1,1,1,1,1,1,1,1,1,1,1,1,1,1,1,1,1,1,1,1,1,1,1,1,1,1,1,1,1,1,1,1,1,1,1,1,1,1,1,1,1,1
1.0
  10.2749214154178805    0.0000000000000000    0.0000000000000000
  -0.1269140897741466   10.6792886319646225   -0.0000000000000000
  -0.2461578415036040    0.3442288631621485   10.9116826963202183
O Zr
64 32
direct
   0.1318836752402026    0.1183149378710752    0.1568793831108452 O
   0.3809161567456804    0.1213770560578273    0.1044594463404245 O
   0.3779192728770687    0.3543580016722644    0.1320345768747343 O
   0.1246660338745663    0.3704416678940350    0.1263821759557817 O
   0.1524256687116592    0.3746497679883767    0.3498032197167170 O
   0.3929075868047718    0.3559830176449588    0.3890389909827178 O
   0.3721260763090760    0.0944736459432894    0.3670647458114520 O
   0.1120066823173558    0.1413923067749473    0.4044392792404281 O
   0.1397351604648553    0.1284437822179746    0.6551702438351588 O
   0.3888114560602126    0.1523789336729682    0.6178720297350321 O
   0.3830221540781524    0.3914403015640388    0.6456484525228950 O
   0.1527956543699733    0.3786397712693513    0.6079362060204584 O
   0.1043713466104914    0.3763770168484560    0.8720573983249147 O
   0.3708447575404322    0.3806065371610172    0.8945277191932703 O
   0.3380572122775480    0.1460891774057363    0.8413150152996893 O
   0.1026684389151462    0.1201171575120840    0.9169388925664174 O
   0.1270835980859515    0.6212306076474141    0.1481398650132232 O
   0.3805559075406401    0.6259615559086729    0.1012468792345443 O
   0.3592749163989076    0.8575940011409876    0.1833974908264940 O
   0.1048221449363550    0.8606726713097427    0.1120789781682734 O
   0.1275645794521120    0.8825193510616453    0.3647837516153511 O
   0.3734161578956308    0.8772889221616681    0.4255997694806608 O
   0.3920614880178282    0.6132223653443066    0.3511855537086215 O
   0.1376836873285963    0.6032385943185005    0.4120988787198178 O
   0.1558061692936334    0.6282204157387610    0.6589652228729900 O
   0.4183966780473976    0.6625745581972804    0.5758496486723356 O
   0.3961566451207733    0.9023573981244962    0.6723506806309629 O
   0.1379572819957020    0.8965719907272395    0.6052573972873326 O
   0.1302567119665016    0.8470153321120885    0.8614785841939899 O
   0.3615698011526120    0.8668348798904623    0.9236693041210685 O
   0.3573977259874498    0.6135641152516299    0.8438764830565758 O
   0.1200528968407761    0.6178598435356768    0.8937731117482814 O
   0.6276537534908445    0.1310901533551699    0.1703764578974559 O
   0.8681502762934284    0.1102706706417556    0.0942280759911337 O
   0.8524589895933370    0.3440870049361830    0.1737297387816535 O
   0.6186270769613702    0.3804750948894808    0.0914384134205509 O
   0.6385916980578087    0.3933174919743122    0.3578177041123722 O
   0.9189541760416811    0.3649843793641915    0.4133781816090694 O
   0.8679964401471888    0.1183246743383366    0.3632335150779833 O
   0.6114104092386591    0.1561858914228976    0.4068652801732565 O
   0.6461501156930146    0.1249639696956462    0.6405503207912273 O
   0.8824463275717918    0.1283843897875597    0.6016245968381987 O
   0.8717858722468620    0.3900616181437180    0.6543097432999694 O
   0.6225372412321433    0.3571543143643122    0.6170907105254040 O
   0.6157431360808568    0.3871591779849684    0.8376402392164806 O
   0.8617339459806936    0.4029556184965438    0.9182353673076386 O
   0.8552280401836937    0.1640471131107804    0.8380027560720462 O
   0.5941612881694058    0.1544615635040338    0.9036850856674346 O
   0.6127413839827704    0.6317089910809468    0.1463568544967461 O
   0.8577965196096634    0.6295523641280761    0.0906877173337996 O
   0.8565122798932525    0.8596863674262545    0.1340627632613732 O
   0.5975661299237283    0.8678065790771614    0.0799881278525757 O
   0.6071068917910638    0.9126595515441807    0.3488749857786630 O
   0.8683693467463786    0.8749463287278302    0.3991379472818377 O
   0.8756152238578583    0.5977433335779868    0.3392806910934534 O
   0.6387455342048073    0.6480058858953933    0.3853289171997208 O
   0.6362919450763419    0.6075080341445575    0.6432825530627957 O
   0.8987763263594556    0.6406236982666950    0.5987216000427840 O
   0.8965544650917479    0.8864460673222589    0.6432195896116836 O
   0.6203397211239613    0.8594341929836162    0.5992129057789568 O
   0.6384797287127812    0.8975485581511042    0.8541051822321520 O
   0.8895899718089479    0.8982846348933206    0.8942510615975525 O
   0.8631486543125103    0.6417112613902879    0.8405251101640766 O
   0.6250083560035179    0.6505188674587812    0.8841072676859749 O
   0.0050923877810285    0.9950066763586142    0.0020119359782523 Zr
   0.0062900819983962    0.2664250669931048    0.2673086941195273 Zr
   0.2464497357792509    0.9895347831314183    0.2561985066008888 Zr
   0.2450749469432592    0.2381455049342459    0.0154949203074809 Zr
   0.0016811637835586    0.0033074454995788    0.4837522424639513 Zr
   0.9894179455546563    0.2429864752367449    0.7368014069279405 Zr
   0.2390870210848130    0.9865262155012050    0.7572807470828150 Zr
   0.2565931848141204    0.2554296772751826    0.5010891339100154 Zr
   0.0055156591693606    0.4933440896060520    0.9962203740643846 Zr
   0.9875680172447874    0.7338172448880720    0.2364098564532065 Zr
   0.2629851739658575    0.5056558493644087    0.2374325355679285 Zr
   0.2343112850897553    0.7399629014763802    0.0031956488994827 Zr
   0.0175542108021404    0.5034816967682225    0.5059067920717331 Zr
   0.0052036424709158    0.7524723114765767    0.7484963913635706 Zr
   0.2436407656805240    0.4744553478675496    0.7843464460331333 Zr
   0.2533246535830578    0.7528014039850773    0.5047648639890733 Zr
   0.5029471648507577    0.0053062862323538    0.9891703752932561 Zr
   0.4836718854586687    0.2273623701567092    0.2596958402259648 Zr
   0.7631911855836739    0.0083990810945741    0.2425459311598674 Zr
   0.7438146469573246    0.2559398680333962    0.9891608353714223 Zr
   0.5019647555493627    0.9985994318752367    0.5078796469373955 Zr
   0.4916567602471892    0.2487105429032505    0.7556160315384265 Zr
   0.7619098668194608    0.0106153438952800    0.7269848321721402 Zr
   0.7440191127258524    0.2636910676678587    0.4843990488545348 Zr
   0.5026618864282902    0.5055857468157408    0.9939212540296295 Zr
   0.5037134246358518    0.7602916663663001    0.2603626804377365 Zr
   0.7254195439864914    0.5017593161427039    0.2283772462097325 Zr
   0.7284135069157297    0.7635339091441876    0.0020037984340741 Zr
   0.5056295609092223    0.4933567470040193    0.4945800484392702 Zr
   0.5089730629207314    0.7493965622349276    0.7391863862133787 Zr
   0.7607152025842940    0.5054523572518100    0.7579933788937292 Zr
   0.7642368819075650    0.7346390025212076    0.5000731327295798 Zr
