0,0,0,0,0,0,0,0,0,0,0,0,0,0,0,0,0,0,0,0,0,0,0,0,0,0,0,0,0,0,0,0,0,0,0,0,0,0,0,0,0,0,0,0,0,0,0,0,0,0,0,0,0,0,0,0,0,0,0,0,0,0,0,0,0,0,0,0,0,0,0,0,0,0,0,0,0,0,0,0,0,0,0,0,0,0,0,0,0,0,0,0,0,0,0,0
1.0
  10.3391784029468567   -0.0000000000000000    0.0000000000000000
  -0.1960750144515985   10.6607476409926356    0.0000000000000000
  -1.8489007557550350   -0.1157984265454935   10.4648624788445197
O Zr
64 32
direct
   0.0432598413342430    0.1698405609853164    0.1629520592981828 O
   0.4717713588510219    0.4250550371263908    0.0785227840175814 O
   0.4543371081656302    0.3336635916699816    0.3201316130692150 O
   0.0389991777462557    0.0987665455570969    0.4340373600591760 O
   0.2162359308373702    0.3822642063369335    0.2449692330771132 O
   0.2699150484407588    0.1369447134887983    0.0087879853161868 O
   0.2717902377230028    0.1074423101221457    0.2509274766876766 O
   0.2327345278252962    0.3864848745232745    0.4894708671284493 O
   0.0362587686771220    0.1631804945455460    0.6777654811363698 O
   0.4723066167333955    0.4203482186815189    0.5950825711555463 O
   0.4673579086661778    0.3309494128372921    0.8260586965357327 O
   0.0299609915799938    0.0959918381297768    0.9261175120927255 O
   0.2290081657063482    0.3730609783456603    0.7370465237830476 O
   0.2880882424548737    0.1325021071401022    0.5083890297703590 O
   0.2724934755498928    0.1194500294473755    0.7604398071247920 O
   0.2258755224709326    0.3707916366022992    0.9961934004555674 O
   0.0297848779350313    0.6685375353068159    0.1762601068603498 O
   0.4652733848306012    0.9179893053835045    0.0886802207077324 O
   0.4560971203292363    0.8062266266997773    0.3415219651500496 O
   0.0188413622377847    0.5983195670874102    0.4349615697675742 O
   0.2198652388426630    0.8735382618295413    0.2405150954719388 O
   0.2695553702155821    0.6353207902122147    0.0067971288723379 O
   0.2644378369512618    0.6279468707146532    0.2626503472220962 O
   0.2220435304691333    0.8685038203754976    0.4894002876534210 O
   0.0378836559384199    0.6665256802718125    0.6722621890561896 O
   0.4706309936875503    0.9333664495477469    0.5912445733527854 O
   0.4659525902868512    0.8236992129997369    0.8418007824669171 O
   0.0263308034290146    0.6030648163828759    0.9151681545324480 O
   0.2338181343138603    0.8806489299952652    0.7365648665027738 O
   0.2786747493266024    0.6249617543861696    0.5181690569811228 O
   0.2860168932043657    0.6127551554014961    0.7578979919739697 O
   0.2286573440292940    0.8829739964660215    0.9836226223525639 O
   0.5235697875264793    0.1612349327240810    0.1582699690366956 O
   0.9622057765440253    0.4283975603762251    0.0785720942785660 O
   0.9750006511204767    0.3417888342985977    0.3189851733597345 O
   0.5334357767528296    0.0648923446811239    0.3953493121064710 O
   0.7180346179279862    0.3750545787243545    0.2399256614098601 O
   0.7773563334343481    0.1241107308748731    0.0221477085024811 O
   0.7673285078399668    0.1308418943828551    0.2652036076929353 O
   0.7085876916389449    0.3636646353335186    0.4878980892029607 O
   0.5302839781099620    0.1613194805941919    0.6630258146083267 O
   0.9544626482587993    0.4013326337175560    0.5661697815215053 O
   0.9687032702820497    0.3339748815650570    0.8320016797259778 O
   0.5390833095134315    0.0797409685717640    0.9126568602413739 O
   0.7282760966522722    0.3818693293452796    0.7506826705540615 O
   0.7757538660759360    0.1218116052280050    0.5006043036103460 O
   0.7797641201951662    0.1229712561500989    0.7579533110286797 O
   0.7194203454586297    0.3639374943742095    0.9907187216706508 O
   0.5319265813598939    0.6670617906366642    0.1659278428847281 O
   0.9575600636246326    0.9161561537939819    0.0673333608467832 O
   0.9740122479377253    0.8524589401792747    0.3133769658349204 O
   0.5411979434304838    0.5779925293332214    0.4243822776054641 O
   0.7174543355694117    0.8830220350350171    0.2365883964175488 O
   0.7726106245823521    0.6259292510546012    0.0142484337468775 O
   0.7803210642150193    0.6248858534488256    0.2737084353368650 O
   0.7371537301856979    0.8690802831439398    0.4847906844218908 O
   0.5361930094638980    0.6774265910896009    0.6671613907792978 O
   0.9799925229410834    0.9083018486729471    0.5746211976656537 O
   0.9682359712140710    0.8392617860260130    0.8249990505229524 O
   0.5350404946391460    0.5869449960229063    0.9190481185149737 O
   0.7171658942606471    0.8863741659851638    0.7349730130375537 O
   0.7683408379932660    0.6234562258080177    0.5127058235257785 O
   0.7835152481093589    0.6368455342119239    0.7643188173346311 O
   0.7344819742219525    0.8708490630484451    0.9899747757740145 O
   0.1357281215361274    0.0224119390854988    0.0971462296284519 Zr
   0.3575558121213114    0.2745194730951489    0.1417915674285896 Zr
   0.3674920379429228    0.4887580153797319    0.4059142976113935 Zr
   0.1372750249825570    0.2359310558299920    0.3470901140500277 Zr
   0.1417972889915258    0.0274786624461114    0.6020270199666905 Zr
   0.3614969991270509    0.2677690941553573    0.6485512980433727 Zr
   0.3676682296581437    0.4771557415294623    0.8929060504607544 Zr
   0.1387546367495337    0.2238186124363647    0.8530973147757731 Zr
   0.1414185524104685    0.5316122570779896    0.1059333752011621 Zr
   0.3581465199395859    0.7654274747369236    0.1481494435148262 Zr
   0.3539145394108331    0.9702206746701372    0.3906119027807181 Zr
   0.1352718249620679    0.7178231798875976    0.3591124704980306 Zr
   0.1420998533624157    0.5149803456330641    0.5984598947726935 Zr
   0.3697305534579956    0.7705224447847361    0.6502013318909180 Zr
   0.3650232945287620    0.9809813128829952    0.8882897708013073 Zr
   0.1431759790523651    0.7348096159265254    0.8503208705407210 Zr
   0.6336315644540369    0.0202045670917340    0.1070731384731700 Zr
   0.8609556454358815    0.2637357763692862    0.1506273556089814 Zr
   0.8477221077677427    0.4753312368915160    0.3960150482988084 Zr
   0.6206399512736421    0.2311541010831385    0.3471473406596665 Zr
   0.6375863797917151    0.0213500946753803    0.5935441291901075 Zr
   0.8584910064269274    0.2598542604438071    0.6473714761465288 Zr
   0.8697299124256639    0.4755810374177091    0.8970549795066710 Zr
   0.6346407320118098    0.2265183797073677    0.8584737545439727 Zr
   0.6404946661184050    0.5188099799161616    0.1016804844928540 Zr
   0.8609673801887484    0.7761679367585435    0.1467445302988406 Zr
   0.8710657263824312    0.9802415190058151    0.4003347033913989 Zr
   0.6382200982946385    0.7299903872428966    0.3555119631166703 Zr
   0.6363605823702362    0.5179606581079140    0.6131203978237513 Zr
   0.8662966408232788    0.7662470126326875    0.6439312032645125 Zr
   0.8627924005395367    0.9849396905167342    0.9004590088737088 Zr
   0.6454807810135633    0.7346818333507397    0.8643328053746885 Zr
