2,2,2,2,2,2,2,2,2,2,2,2,2,2,2,2,2,2,2,2,2,2,2,2,2,2,2,2,2,2,2,2,2,2,2,2,2,2,2,2,2,2,2,2,2,2,2,2,2,2,2,2,2,2,2,2,2,2,2,2,2,2,2,2,2,2,2,2,2,2,2,2,2,2,2,2,2,2,2,2,2,2,2,2,2,2,2,2,2,2,2,2,2,2,2,2
1.0
   9.7148471909017324    0.0000000000000000   -0.0000000000000000
  -0.3864074671712899   10.0490786762507600    0.0000000000000000
  -0.0589152522862387   -0.3614794846116692   10.5386586641118480
O Zr
64 32
direct
   0.1181366386099648    0.1459844214595306    0.1383026514145891 O
   0.1888360521635203    0.3445958887712261    0.3164873237481488 O
   0.1146787228237304    0.1069869307555828    0.3776796327462644 O
   0.1897048712162381    0.4197358099228969    0.0547391331939126 O
   0.4348864239699056    0.4024565860193810    0.1813153317800369 O
   0.4272108051795410    0.3424064582624524    0.4435044564368097 O
   0.3690091015367254    0.0970299401497281    0.3698381662243990 O
   0.3672445614418837    0.1383308997997104    0.1118959881977903 O
   0.1141759552227583    0.1339549450988701    0.6226558979223770 O
   0.1887752333186107    0.3225773235230640    0.8059137341379842 O
   0.1121990687028109    0.1121457902782547    0.8869086663684738 O
   0.1799952730860349    0.4043921039573552    0.5633781337295419 O
   0.4353766825664192    0.4165814311309161    0.6831653906030322 O
   0.4413904274233509    0.3470409328909463    0.9291236197301399 O
   0.3722134222222659    0.0975166926521646    0.8737214792387431 O
   0.3760747989536628    0.1353928221393532    0.6161249829080798 O
   0.1259225047806193    0.6484103559873073    0.1285855767503600 O
   0.1755067774313924    0.8437145099021658    0.3158026080618374 O
   0.1187241523318019    0.6111865053298602    0.3826207918026184 O
   0.1684420451468190    0.9178105864550814    0.0641287599152881 O
   0.4291295550509638    0.8935187573094547    0.1860902977129753 O
   0.4456108353797810    0.8223250943154977    0.4448852838896956 O
   0.3730368128137040    0.6052710734859865    0.3634345076611118 O
   0.3798317041346880    0.6489406712435617    0.1291781739583203 O
   0.1230403663152830    0.6459838301042738    0.6334052693187364 O
   0.1996018710196395    0.8426093313880469    0.8074370128503566 O
   0.1153401383263392    0.6095993990229678    0.8854357204277478 O
   0.1946765037178027    0.9149367018083591    0.5586060168214136 O
   0.4227726681687299    0.9026900429440151    0.6833705203988535 O
   0.4341584442029258    0.8344007703366755    0.9414276091022946 O
   0.3687946916307455    0.6132059420673871    0.8699864074374289 O
   0.3748780990719484    0.6387480397177006    0.6215409794707516 O
   0.6267649257321350    0.1480434666029123    0.1411953614806067 O
   0.6860383300044866    0.3265473890209007    0.3195880126347979 O
   0.6141551791574152    0.0973060579247436    0.3777774492742359 O
   0.6922821328752568    0.4068482533198650    0.0726044194035469 O
   0.9456373428315744    0.4118699312965404    0.1800617607686720 O
   0.9374067092039424    0.3422830156682966    0.4371596777195995 O
   0.8683231838507628    0.1037319614986875    0.3690109992975788 O
   0.8693957132580082    0.1354442855180740    0.1118741456742457 O
   0.6194436514802083    0.1380809356757878    0.6289541425581988 O
   0.6763385584828128    0.3386536821207194    0.8025908212876751 O
   0.6188670904944665    0.1004946543048842    0.8791849595387622 O
   0.6864310553679774    0.4169636393700729    0.5663344720258089 O
   0.9494055358771520    0.4275906577679290    0.6935567345102911 O
   0.9336487459705655    0.3427352058612143    0.9319308590423635 O
   0.8621719692338494    0.1088760095368599    0.8700566833827466 O
   0.8701654522522825    0.1469066879518830    0.6258914406690186 O
   0.6276455930056637    0.6324307759598906    0.1388382681168571 O
   0.6935427556967561    0.8356234960087928    0.3200229637937732 O
   0.6271074101985575    0.5897210758781686    0.3858487371497664 O
   0.6800343470124109    0.9115001284284558    0.0695588116632278 O
   0.9345901216102773    0.9128787266244895    0.1802488467501845 O
   0.9286494163898840    0.8346290048432764    0.4402261783180154 O
   0.8750993975646687    0.6088894637539476    0.3634516018099729 O
   0.8737865506171733    0.6460106068332349    0.1193376415428282 O
   0.6175610584097299    0.6507221020586199    0.6434461831553664 O
   0.6782023121513374    0.8425767406656322    0.8143430494931264 O
   0.6175070332575777    0.6020001884514488    0.8784935961373824 O
   0.6889856207539223    0.9211177872715852    0.5680229941866601 O
   0.9492735915752692    0.9094676135601120    0.6755186074526841 O
   0.9083226941504193    0.8624521864243443    0.9254512264841384 O
   0.8711997330409409    0.6105958422542327    0.8702542157885630 O
   0.8759516937702021    0.6408762152720588    0.6163130185550402 O
   0.5023687248480599    0.0041838644501758    0.0136256129054638 Zr
   0.2484656648868737    0.0036113301902417    0.2323109802424109 Zr
   0.2513687255982384    0.2411655891423416    0.4795398745297445 Zr
   0.4937465331582076    0.2376035371187345    0.2618088356059805 Zr
   0.5025038848982607    0.0023682179473676    0.5097100997959593 Zr
   0.2484953763197443    0.0039517804094527    0.7201542824083492 Zr
   0.2475103890852801    0.2493572222303136    0.9815190891536232 Zr
   0.4937044126099670    0.2449004478579435    0.7651508338589472 Zr
   0.5043654742848850    0.5092643134216203    0.0175279224697774 Zr
   0.2426054638643755    0.5206843163529675    0.2343413854089496 Zr
   0.2535247439885792    0.7354303925711321    0.4787022611786204 Zr
   0.5090979237766126    0.7323650758520568    0.2760587090658166 Zr
   0.5074221860246819    0.5191624343237184    0.5282382591588715 Zr
   0.2505205159191605    0.5111790202157054    0.7300926313423240 Zr
   0.2526510842562403    0.7442402337620392    0.9779388143859727 Zr
   0.4939680681153811    0.7425762555359922    0.7648155985778171 Zr
   0.9940585976494352    0.0080345550167547    0.0096888206416357 Zr
   0.7477856547549082    0.0133958743458051    0.2407830309697057 Zr
   0.7353667773424765    0.2349617879501148    0.4793869768554430 Zr
   0.0078491719712696    0.2472321677522111    0.2649446624747772 Zr
   0.9921809921069933    0.0125480996083145    0.5149133691538269 Zr
   0.7406562739967530    0.0155526783023196    0.7338704385157908 Zr
   0.7481421436793637    0.2382433114675479    0.9876254994427379 Zr
   0.0035967288388483    0.2412939074644659    0.7685202807811561 Zr
   0.0031924450461569    0.5110656075639027    0.0201262332864327 Zr
   0.7559366184725291    0.4983607024448254    0.2458628425763103 Zr
   0.7542086533278738    0.7350620339275206    0.4867555052303530 Zr
   0.9933295994190909    0.7371063153751944    0.2637366758698640 Zr
   0.0024644288550538    0.5132687260728086    0.5206532048888993 Zr
   0.7661583209355145    0.5077196243635894    0.7366776778280143 Zr
   0.7377660538364667    0.7444762577260440    0.9822883259093032 Zr
   0.0026121015060935    0.7458835655451411    0.7712439486989479 Zr
