0,0,0,0,0,0,0,0,0,0,0,0,0,0,0,0,0,0,0,0,0,0,0,0,0,0,0,0,0,0,0,0,0,0,0,0,0,0,0,0,0,0,0,0,0,0,0,0,0,0,0,0,0,0,0,0,0,0,0,0,0,0,0,0,0,0,0,0,0,0,0,0,0,0,0,0,0,0,0,0,0,0,0,0,0,0,0,0,0,0,0,0,0,0,0,0
1.0
  10.7554475624685075   -0.0000000000000000    0.0000000000000000
  -0.0843093403573187   10.1127926189928630    0.0000000000000000
  -2.0436630657014523    0.1974496026158311   10.9920332979405604
O Zr
64 32
direct
   0.0271671501787031    0.1528123909033026    0.1862666011741071 O
   0.4651515031703893    0.4200709086356661    0.0842021304441835 O
   0.4731084427188320    0.3140335486685539    0.3343089129277373 O
   0.0312529022027758    0.1076224716964673    0.4378841818102749 O
   0.2297984608435714    0.3684104347163772    0.2354641200809430 O
   0.2709295431286224    0.1282130281834368    0.0084484045838361 O
   0.2886957740999485    0.1071904019388267    0.2572994899615063 O
   0.2332497381439591    0.3757394061867665    0.4886137083669744 O
   0.0174706081199807    0.1564473089539962    0.6911587546430923 O
   0.4772222584392616    0.4044105256964955    0.5677260911563284 O
   0.4811723222073980    0.3329149020283853    0.8460335554062010 O
   0.0351115509585640    0.0910576036428303    0.9418891343096426 O
   0.2300894029014673    0.3845954056726670    0.7417727651741772 O
   0.2795503035339346    0.1282416420765655    0.5258998204347742 O
   0.2741071171104280    0.1217939784779493    0.7719887282173593 O
   0.2457183450697827    0.3661642442153181    0.9885172690875846 O
   0.0277537456587000    0.6616608578950086    0.1636614400574142 O
   0.4635822435531238    0.9124282360317942    0.0744820247909357 O
   0.4514304442747731    0.8087314924098301    0.3368815116848115 O
   0.0227246225297050    0.5884894139671651    0.4283758870965406 O
   0.2228220297614260    0.8723277743663616    0.2366135992498577 O
   0.2722906136203735    0.6219724362728265    0.0005756179888197 O
   0.2662571904961734    0.6102254799221386    0.2508192301524911 O
   0.2081989884496951    0.8795546896166330    0.4866565638590487 O
   0.0327652478772376    0.6701801672615147    0.6710012077366875 O
   0.4546442573544058    0.9228160325221242    0.5746400094951892 O
   0.4496739999761752    0.8428239906048418    0.8084889525548502 O
   0.0336561275369172    0.5848354199927990    0.9177311347837721 O
   0.2078061783052416    0.8799600530896461    0.7404310749154002 O
   0.2664290794610745    0.6337050856759446    0.5087930328911784 O
   0.2826610882777192    0.6221116905428021    0.7498096508081165 O
   0.2078557509401977    0.8686146450190136    0.9947689633226152 O
   0.5609650193727728    0.1747544768782942    0.1771361006852846 O
   0.9836829665363006    0.3934161146941437    0.0692313478837967 O
   0.9671602298274647    0.3391231627371275    0.3231351043364722 O
   0.5328060952169730    0.0817845089850791    0.4149589844814774 O
   0.7292586165563355    0.3711821670271209    0.2416981981939377 O
   0.7754262938501671    0.1243739977183568    0.0321601760400628 O
   0.7719328737932577    0.1035240086059976    0.2748692884751429 O
   0.7337573078243360    0.3773103088380107    0.5018431341482121 O
   0.5394246022860979    0.1783226291778018    0.6614749228209005 O
   0.9682014609485203    0.4192954721732649    0.5857873062126179 O
   0.9783244980670990    0.3176989881986044    0.8318354993259631 O
   0.5146181968819455    0.0859391506813281    0.9113692315576328 O
   0.7237825428777184    0.3787066667513220    0.7431958847714341 O
   0.7705867695646483    0.1346597379948082    0.5281590109527518 O
   0.7741636045179893    0.1134597056142521    0.7681681776093233 O
   0.7475802012803142    0.3686288540933228    0.0011602189835423 O
   0.5279505050210638    0.6715631720267643    0.1571414124376446 O
   0.9706782890921066    0.9115679116898805    0.0738868331896489 O
   0.9553022069010942    0.8247953312256062    0.3136722585480148 O
   0.5365909488484628    0.5744314089594585    0.3993292871321991 O
   0.7224832043852162    0.8634727286708026    0.2239693284281855 O
   0.7722318066864791    0.6148656993615723    0.9949848884054155 O
   0.7536738150772536    0.6157002712058015    0.2545261584336886 O
   0.7190472453261797    0.8820479133848937    0.4818001564089365 O
   0.5148734051353605    0.6762320053594914    0.6536539196024962 O
   0.9761987088385284    0.9338209352854754    0.5759656032597870 O
   0.9626030691365631    0.8309129812779175    0.8251384102520253 O
   0.5487488469660604    0.5926842104957403    0.9206086201081595 O
   0.7310591147474763    0.8709476309912693    0.7174272888144815 O
   0.7717398275896787    0.6314426806413425    0.5079332906447852 O
   0.7780842549486602    0.6272288081837603    0.7598803760142291 O
   0.7172177310642965    0.8517582014031791    0.9819296408538195 O
   0.1385607477628223    0.0142325472499199    0.1150178299711731 Zr
   0.3819917682341153    0.2731633733176539    0.1456778669238579 Zr
   0.3649537842576415    0.4750896996556405    0.3966582156930778 Zr
   0.1346273983359711    0.2386864951686263    0.3498581277970211 Zr
   0.1333909826744437    0.0451604444048035    0.6109470758843324 Zr
   0.3584703464448735    0.2744633977985630    0.6570644829881642 Zr
   0.3748423642006828    0.4874280097744652    0.8993082219967502 Zr
   0.1519651073722181    0.2254182335776695    0.8730832430427646 Zr
   0.1430861408535499    0.5305758509069349    0.1033488174306059 Zr
   0.3607543834036168    0.7729946492246450    0.1511080670953933 Zr
   0.3540022400482291    0.9823062210222997    0.4056220701073890 Zr
   0.1479737954993679    0.7329275704327360    0.3559956269358419 Zr
   0.1277656115303427    0.5128075779357968    0.5928309433724969 Zr
   0.3467407157950766    0.7760763653659424    0.6447932721353667 Zr
   0.3540973038993230    0.9803032486006029    0.8971796971491787 Zr
   0.1339512705482759    0.7275147759187163    0.8497821452060261 Zr
   0.6435992844944698    0.0151367462292085    0.1103204937822740 Zr
   0.8686267623030728    0.2664486467204943    0.1426763438929750 Zr
   0.8511936806998215    0.4665303308488113    0.4021092466330246 Zr
   0.6442067416293484    0.2178460440244663    0.3669990020368490 Zr
   0.6343234831508436    0.0252098852956794    0.6076179418280467 Zr
   0.8609822089798034    0.2719730354182865    0.6570389179728132 Zr
   0.8708005314554812    0.4726832713616236    0.8831160941459960 Zr
   0.6337775560158829    0.2289654023525181    0.8472606764887513 Zr
   0.6382778343632235    0.5190759278165750    0.1141533534687429 Zr
   0.8528001871030431    0.7522686536535077    0.1202804372279067 Zr
   0.8710061886658717    0.9721005996377965    0.4005043313164648 Zr
   0.6322259953184359    0.7355161738404222    0.3448189777782181 Zr
   0.6300176101380152    0.5287655453543353    0.5915365957468700 Zr
   0.8751527818984410    0.7795338772808642    0.6326943884625055 Zr
   0.8679533354922169    0.9863217038253675    0.8971257265430207 Zr
   0.6248082486153966    0.7342543012154070    0.8406213454276206 Zr
