1,1,1,1,1,1,1,1,1,1,1,1,1,1,1,1,1,1,1,1,1,1,1,1,1,1,1,1,1,1,1,1,1,1,1,1,1,1,1,1,1,1,1,1,1,1,1,1,1,1,1,1,1,1,1,1,1,1,1,1,1,1,1,1,1,1,1,1,1,1,1,1,1,1,1,1,1,1,1,1,1,1,1,1,1,1,1,1,1,1,1,1,1,1,1,1
1.0
   9.9031566534426148   -0.0000000000000000   -0.0000000000000000
   0.2459793200189135   10.0124540667169928    0.0000000000000000
   0.2498104530677270    0.1067689363041164   10.2210755233042594
O Zr
64 32
direct
   0.1236736791682654    0.1321680441415147    0.1475057220800774 O
   0.3763638757567396    0.1101191752863800    0.1016856208948160 O
   0.3634546376498889    0.3662798818684331    0.1639948859274369 O
   0.1107497313489632    0.3835216187572119    0.1033142633270185 O
   0.1238129310534119    0.3604460124119964    0.3657611028581296 O
   0.3735768767619209    0.3656051966873649    0.3983579727120266 O
   0.3817309571973120    0.1135180980520620    0.3560123087148115 O
   0.1305411506394491    0.1072752987638956    0.3876800356543109 O
   0.1219045918469929    0.1383049335396981    0.6593212583191472 O
   0.3633144051154345    0.1301106465722160    0.5961424231439580 O
   0.3873834069440387    0.3849445376719957    0.6605578735433651 O
   0.1366956916907795    0.3979341888310959    0.6093915974496599 O
   0.1332359688040370    0.3791273392098760    0.8638374307839629 O
   0.3793705396873112    0.3698876824616807    0.9161423153023360 O
   0.3751204152602614    0.1308245576416468    0.8494717476261369 O
   0.1266764205119804    0.1285622048433001    0.9028028210006716 O
   0.1171641438790782    0.6207999658955009    0.1443320312560502 O
   0.3674625422425019    0.6107591204877979    0.1102400772629981 O
   0.3737278964147953    0.8539115436126655    0.1551848431981089 O
   0.1369928277529276    0.8656832311150604    0.0945406368436277 O
   0.1311462098859995    0.8750033009195639    0.3375956777770189 O
   0.3729737788083267    0.8616429651574944    0.4023781732580759 O
   0.3710311169571354    0.6097392475356362    0.3547708892310136 O
   0.1272795184673964    0.6135490614239518    0.3990065471291595 O
   0.1334291562739046    0.6286686780386717    0.6416483260540303 O
   0.3879433564210194    0.6304760106005353    0.5961520316533342 O
   0.3785418929084696    0.8772283891431057    0.6633664409915313 O
   0.1225567221483125    0.8817109269265955    0.5981304238444392 O
   0.1247053198940979    0.8798869233653016    0.8422240486113808 O
   0.3636399799454852    0.8818462562159972    0.9072784649185447 O
   0.3771101481765862    0.6268181970019653    0.8499608207856690 O
   0.1256055539042156    0.6291217369912002    0.8947989322500723 O
   0.6294247569367825    0.1226283093853626    0.1537243496848808 O
   0.8854579794032196    0.1366711755139904    0.0875082645325029 O
   0.8649428425720377    0.3794646818060260    0.1504920469565942 O
   0.6100069641869176    0.3527273392862120    0.0884303932241959 O
   0.6210951406648811    0.3809601686004488    0.3421693284944424 O
   0.8727497739416485    0.3672242450073009    0.3968446324021215 O
   0.8621048499351194    0.1329300069125579    0.3434876160532496 O
   0.6410934764846699    0.1092817026799885    0.3977997182908562 O
   0.6117633030926732    0.1255035666129095    0.6472472047698291 O
   0.8632021940108814    0.1260439031527371    0.5956437414750496 O
   0.8897100651219204    0.3855525388494603    0.6522974375738337 O
   0.6281675673789671    0.3851798929645709    0.6111432288077472 O
   0.6271565202426002    0.3772925485371434    0.8402379696069046 O
   0.8896659360034602    0.3746722595441103    0.9096354323966808 O
   0.8816834688022523    0.1219938307282779    0.8388572267420443 O
   0.6402560038880569    0.1127845740311593    0.9068009219741774 O
   0.6110533146092038    0.6028953115829817    0.1452361920343293 O
   0.8679857904457765    0.6375602050704205    0.1087430714180541 O
   0.8902141177236823    0.8868789370096547    0.1420442450493360 O
   0.6324186724604373    0.8749062168585344    0.1035756147957470 O
   0.6370816493035044    0.8710983642632466    0.3491393415755090 O
   0.8896031745887742    0.8840144669023626    0.4040106590920721 O
   0.8771048276105921    0.6275468177802317    0.3556836976706663 O
   0.6255806203964236    0.6255629687497859    0.3882392509332674 O
   0.6350683808583834    0.6381544771999530    0.6435844407960534 O
   0.8876634546765061    0.6288344073948419    0.5945310760345027 O
   0.8689860504625395    0.8739598924351634    0.6484953502092119 O
   0.6279224056104772    0.8813029777432324    0.5963720665307668 O
   0.6068394741305628    0.8789474634679767    0.8510360130464976 O
   0.8523562373550372    0.8877213128489413    0.9046380463991368 O
   0.8785836433979062    0.6366952743497718    0.8598796855635339 O
   0.6228759957549335    0.6282097352096929    0.8978803813821317 O
   0.0021623383935254    0.9984367512986947    0.9931939754240492 Zr
   0.9899459253390362    0.2520541104624208    0.2447563333717802 Zr
   0.2559041308826228    0.9935350936368887    0.2564739112066108 Zr
   0.2456789238205143    0.2532210804873452    0.0134565356342789 Zr
   0.9938867351820859    0.0093522064177918    0.5027102336818381 Zr
   0.0038304867253071    0.2652614652840956    0.7707617170461141 Zr
   0.2489778205921883    0.0101178356940457    0.7654510936213834 Zr
   0.2410120243932471    0.2459123178280463    0.4969086154015703 Zr
   0.0030179508614461    0.5171632216226226    0.0011142117944471 Zr
   0.9964448413431786    0.7499129405675182    0.2435149138977660 Zr
   0.2371100296710282    0.4943818094021333    0.2510172384256656 Zr
   0.2638679657923210    0.7447312014185877    0.0097396853563036 Zr
   0.9955946399455391    0.4924381668960046    0.4987976484447151 Zr
   0.0140600369407849    0.7576914331734413    0.7370819681278012 Zr
   0.2498937449602979    0.5033037364976441    0.7490551323139943 Zr
   0.2508714500903536    0.7326133455012719    0.5049028956427933 Zr
   0.5030222907854561    0.9887032014539883    0.9992021183205558 Zr
   0.5056719991894056    0.2466683967228967    0.2418958799749396 Zr
   0.7501492765130281    0.9977616825377625    0.2495692359853886 Zr
   0.7485567056613194    0.2408639466842811    0.9907070432375054 Zr
   0.4942719769292884    0.9990442425449577    0.4983729523068084 Zr
   0.5007040410941660    0.2477775085691252    0.7526160460864261 Zr
   0.7474927035793864    0.0022530461450885    0.7467365988831466 Zr
   0.7481056080062204    0.2428321053670243    0.4928605501753949 Zr
   0.4968089109157126    0.4985858434168225    0.0012487309354969 Zr
   0.4929088774963707    0.7415911694811165    0.2543879037065794 Zr
   0.7532579277387355    0.5099054526151728    0.2484594530986330 Zr
   0.7463002367317760    0.7552172606004566    0.9919491353217536 Zr
   0.5072027892724265    0.4958115928391694    0.4935562062914062 Zr
   0.5008962479259174    0.7426943974370019    0.7459746440397210 Zr
   0.7502345928072468    0.5067134463838822    0.7444372824612675 Zr
   0.7536158639191182    0.7633311345003109    0.5040073825161042 Zr
