1,1,1,1,1,1,1,1,1,1,1,1,1,1,1,1,1,1,1,1,1,1,1,1,1,1,1,1,1,1,1,1,1,1,1,1,1,1,1,1,1,1,1,1,1,1,1,1,1,1,1,1,1,1,1,1,1,1,1,1,1,1,1,1,1,1,1,1,1,1,1,1,1,1,1,1,1,1,1,1,1,1,1,1,1,1,1,1,1,1,1,1,1,1,1,1
1.0
  10.6148017661339011   -0.0000000000000000   -0.0000000000000000
  -0.4847149433712941   10.4799817468046008   -0.0000000000000000
  -0.1517037865111183   -0.4733304358310453   10.8604492266469670
O Zr
64 32
direct
   0.1112334888342797    0.1522257513110248    0.0685150716670431 O
   0.3677197978389788    0.1598153027366855    0.1374436835575404 O
   0.3860727130944772    0.3981638865606833    0.0719851444433637 O
   0.1363644090753026    0.4066817467548220    0.1572159409493552 O
   0.0971814802044664    0.3617031604379091    0.3719092613213223 O
   0.3784455275383026    0.1058056809662256    0.3784908739699612 O
   0.3581047577405322    0.8860094442470207    0.6029719912351899 O
   0.1533953045639544    0.1431954878395171    0.3412911945949367 O
   0.8574296928797938    0.8687932729943759    0.6023318889838997 O
   0.0816547923115770    0.1218405262419067    0.6064684434083495 O
   0.3545459191361005    0.3699450369494625    0.5861534700683272 O
   0.1258316749629039    0.3837625559265502    0.6193659837289028 O
   0.1248782767637756    0.3692116537209390    0.8889407444594856 O
   0.4153144393160694    0.5785365963284900    0.8295644058714096 O
   0.3609147734686142    0.3529913396883199    0.8312587385657561 O
   0.1397167423975065    0.1254485787189875    0.8362452958314651 O
   0.1641277891029801    0.6515921805062324    0.3289704081516201 O
   0.3987419083460244    0.6110997765943312    0.3479219731472005 O
   0.3633117786506064    0.8695797300069825    0.3510449535591693 O
   0.1519700321620073    0.8925288351498064    0.1177640849755961 O
   0.1365718793232990    0.9116691723950469    0.3753754575544981 O
   0.3705973620243464    0.6345120711373230    0.5981074032335837 O
   0.3622310033724671    0.3299621413748698    0.3001071859995491 O
   0.1367870694015373    0.6271618342443680    0.5700922929236454 O
   0.1884307582812130    0.6625244154836677    0.8176360011621324 O
   0.3969952982880838    0.8895422284524057    0.0961436623301054 O
   0.3973272507005754    0.8758250671732060    0.8260027143250699 O
   0.1163739262696678    0.8492901040403955    0.6042843426768807 O
   0.1229058618802348    0.8754989046324775    0.8646404963949330 O
   0.3902018536635634    0.1218395612644161    0.9006913955179041 O
   0.1428577455617147    0.6178131280559258    0.0798792976326853 O
   0.9421711597932212    0.6775114877201381    0.9058708344090675 O
   0.6325908000850996    0.1449469227879943    0.0809666205098114 O
   0.8794147850748595    0.1166798242670909    0.1257327434163224 O
   0.9022345831681353    0.3521846181323868    0.0608917091548498 O
   0.6494431746620198    0.4047025770176612    0.1339793783142833 O
   0.6132642220887660    0.3540026365527557    0.4107162875597868 O
   0.8874086622465558    0.3811165864417834    0.3277932629495016 O
   0.9005864008616303    0.1128228074783588    0.3750256232409526 O
   0.6508375677701475    0.1531135310067835    0.3331145265633679 O
   0.3802095071916665    0.1134037241940965    0.6272911492633835 O
   0.6041268460690296    0.1318010284429781    0.5998650843019840 O
   0.8523018001657160    0.1222438870179909    0.6445067796482902 O
   0.6425638469970758    0.3762656423897479    0.6335191456002240 O
   0.5983861923646616    0.3588304211386508    0.8876057010651087 O
   0.8620220228542452    0.3783287652004748    0.8269444304904477 O
   0.8807860187102343    0.1258548344340995    0.8721241142917493 O
   0.6258137600749407    0.1073967365792681    0.8330466755741404 O
   0.6431360789090187    0.6550275019393726    0.1322330432222261 O
   0.8748475445265368    0.6297093759858878    0.1552871247224350 O
   0.8941036791287924    0.8602281288833862    0.1081218947940827 O
   0.6377206227558737    0.9042648967388837    0.1370163183903048 O
   0.6053427182660382    0.8830681915193663    0.3767823588051857 O
   0.8601036467257470    0.8705022489109955    0.3505608585010109 O
   0.8943632581882476    0.6329169626256307    0.4008178673879731 O
   0.6395926799455766    0.6364613265577800    0.3597955389738889 O
   0.6330346899321317    0.6172872150812776    0.6108007159523395 O
   0.8808690068111121    0.3720814980826295    0.5897198891078790 O
   0.9257848695618234    0.5884816588855633    0.6635046740626173 O
   0.6170199161932350    0.8668893715402793    0.6136570658742090 O
   0.6149587233398599    0.8447296183421293    0.8636940527455507 O
   0.8618579766061275    0.9016517364983609    0.8573885255550199 O
   0.6822987432306291    0.5902417786321660    0.8947981055200133 O
   0.3892532803549511    0.6491459614581755    0.0787145384559689 O
   0.9876370599694513    0.0135974946756736    0.9916133345181073 Zr
   0.0154896330531929    0.2405424614609908    0.2415695042763890 Zr
   0.2746795207225893    0.9994001409363793    0.2558928558112708 Zr
   0.2419474693225648    0.2392986049031268    0.9841249891372867 Zr
   0.9871159718832144    0.9709149574124903    0.4964398777143935 Zr
   0.0006750988642321    0.2478299747915853    0.7506068005178466 Zr
   0.2653443242274979    0.0059682730115127    0.7450056694568267 Zr
   0.2132673602585278    0.2511437089982921    0.4904227274532734 Zr
   0.0231971047713288    0.4971300931467641    0.0016634828562776 Zr
   0.0321777683799329    0.7712600586344153    0.2583889709382111 Zr
   0.2960016730761175    0.5061304423088414    0.2208895686482253 Zr
   0.2527175880098725    0.7617337965014752    0.9837656998373169 Zr
   0.0260957054781348    0.5209206590452374    0.4657735905793424 Zr
   0.0244070905965269    0.7480069854414143    0.7471765332128261 Zr
   0.2729165060465460    0.5147505901550784    0.7244117741554026 Zr
   0.2505714770929706    0.7637824446520309    0.4850636439213329 Zr
   0.5103078317649498    0.0006935299436731    0.9993380544398358 Zr
   0.5209631180721364    0.2709469860852703    0.2189938448461670 Zr
   0.7726100627598119    0.0048064009777755    0.2358019655316460 Zr
   0.7519267257945308    0.2672588404380015    0.9749725670021031 Zr
   0.4880110517048224    0.0204335044748652    0.5117333103555108 Zr
   0.4995010439235201    0.2413781323447263    0.7425350827766583 Zr
   0.7401346954901548    0.0034499700980310    0.7324948378729338 Zr
   0.7506973439160844    0.2448993368178280    0.5027236584471975 Zr
   0.5227020082997261    0.5156518795423752    0.9941850894996113 Zr
   0.5137971919641916    0.7664438537861450    0.2524276050822622 Zr
   0.7738124252618647    0.5212834907437626    0.2371861748296477 Zr
   0.7736396942148542    0.7686806726226255    0.9688551939438147 Zr
   0.4987473961607243    0.4939562807328242    0.4963803113293850 Zr
   0.4989288120072338    0.7296077512489206    0.7423166727044321 Zr
   0.7576915039590448    0.4984482530052676    0.7237234515046546 Zr
   0.7347115195171934    0.7542610074170212    0.4761494873261836 Zr
