1,1,1,1,1,1,1,1,1,1,1,1,1,1,1,1,1,1,1,1,1,1,1,1,1,1,1,1,1,1,1,1,1,1,1,1,1,1,1,1,1,1,1,1,1,1,1,1,1,1,1,1,1,1,1,1,1,1,1,1,1,1,1,1,1,1,1,1,1,1,1,1,1,1,1,1,1,1,1,1,1,1,1,1,1,1,1,1,1,1,1,1,1,1,1,1
1.0
   9.8102668367489620   -0.0000000000000000    0.0000000000000000
  -0.2010411011645034   10.1190202096926285   -0.0000000000000000
   0.0000722572394187    0.2429713664756494   10.7924222268449075
O Zr
64 32
direct
   0.1456434191566996    0.1161330410221904    0.1439261320814818 O
   0.3982537829611517    0.1307869224405782    0.1116595628275652 O
   0.3956129325154782    0.3838387330845438    0.1744894131750931 O
   0.1398869916172641    0.3805861215041882    0.1070522450767532 O
   0.1336587738964991    0.3744411032901342    0.3438524575112817 O
   0.3762147211667398    0.3707215956214310    0.4113615550137612 O
   0.3707842399535670    0.1211445882037482    0.3505725814811907 O
   0.1149623749203605    0.1243316189943046    0.3939651901427690 O
   0.1159558749991650    0.1259584141881173    0.6491620656272421 O
   0.3646098572173554    0.1235886962739629    0.5917604872531993 O
   0.3376013374035198    0.3518744587001581    0.6646777164774733 O
   0.1199171506723143    0.3835793463613563    0.6017068845163632 O
   0.1005948955828876    0.3923936007390659    0.8375202256094881 O
   0.3760444068698226    0.3685417683525911    0.9097977627187864 O
   0.3857718982509395    0.1198554851486135    0.8487862875781872 O
   0.1430945775769137    0.1408432966238814    0.9031236735675268 O
   0.1330166694168860    0.6271826286900877    0.1542916379844791 O
   0.3969901291745181    0.6190476738726793    0.0943237145659376 O
   0.3673368436320624    0.8672337811785751    0.1645957641261887 O
   0.1100154297120470    0.8728786234812137    0.1070205961389318 O
   0.1151767360211454    0.8729667170865454    0.3518682697155907 O
   0.3671009485359902    0.8837532893495591    0.4182610229492154 O
   0.3610293416656825    0.6409497011743016    0.3544001845559897 O
   0.1160762695895196    0.6353342234052233    0.3916174145677017 O
   0.1262980639701085    0.6222738573736732    0.6476956649465280 O
   0.3708008798573094    0.6255137443233179    0.5974218104682995 O
   0.3728642277986989    0.8823173636196476    0.6670331645284927 O
   0.1243091061775069    0.8808266240941361    0.6053110269305886 O
   0.1169454598048187    0.8865624964637230    0.8516116743689442 O
   0.3551065151021519    0.8694909350453446    0.9093748178502430 O
   0.3756186211175830    0.6154622642360391    0.8452732557394501 O
   0.1267140615383055    0.6281722134867558    0.9093920809072363 O
   0.6458604301208138    0.1350956784429571    0.1485785255983984 O
   0.8912598431255391    0.1220441217707946    0.1045471838743893 O
   0.8904816829710857    0.3575976064243652    0.1414901231070918 O
   0.6279049962299280    0.3726567184309209    0.1029666552181279 O
   0.6335057917318543    0.3786402316950393    0.3446590258345953 O
   0.8849885574247245    0.3620991895317818    0.4041005219617853 O
   0.8797675432250851    0.1304678278344623    0.3552671735787807 O
   0.6244957738025502    0.1114562495301889    0.3971866681547689 O
   0.5974666988066692    0.1040231070831459    0.6574099700206216 O
   0.8556680699403237    0.1214734709923978    0.5875185708383535 O
   0.8590029022165030    0.3891380527068801    0.6411500896516433 O
   0.5982918422265555    0.3527553947230441    0.5973076824834865 O
   0.6308120851260710    0.3758662620249424    0.8430252222683677 O
   0.8684661128013239    0.3948406452619793    0.8950944345442001 O
   0.8856972215150758    0.1302838100877418    0.8368575160759221 O
   0.6216572021473418    0.1437621313220898    0.8964601340591190 O
   0.6357835007796302    0.6265522700119542    0.1452055163206988 O
   0.8769945523731569    0.6201116488341150    0.0978333896976039 O
   0.8648679785328978    0.8573535942102382    0.1553283803825080 O
   0.6211080853637574    0.8642092341441378    0.0939558196655580 O
   0.6140840887608209    0.8686148931095669    0.3391003218996458 O
   0.8721797475683805    0.8697170419649761    0.3997559862760547 O
   0.8663156500734404    0.6077628833423004    0.3455451960287350 O
   0.6233466416883241    0.6271699040567771    0.4016424546398811 O
   0.6227397746461201    0.6137552059771010    0.6521840594312720 O
   0.8808716497121692    0.6333805030543950    0.5811485032803038 O
   0.8628643384742375    0.8894108562902496    0.6449345350932243 O
   0.6169901988403484    0.8658291776223340    0.5949647021989399 O
   0.6257476817777796    0.8760891459012681    0.8520432507567188 O
   0.8715650499837476    0.9038454825194219    0.8985959576782750 O
   0.8673414511395996    0.6483916529810051    0.8363722324028119 O
   0.6142475513376990    0.6326982670447497    0.9018164766284644 O
   0.0299764207312175    0.0013076497304727    0.9868389441443831 Zr
   0.0137373438704835    0.2463598564768248    0.2481997839036634 Zr
   0.2460799145800069    0.9895214053858538    0.2698562872990397 Zr
   0.2717259200047951    0.2458587017551150    0.0176622244565135 Zr
   0.9915181937139497    0.0033610223396270    0.4931174687701068 Zr
   0.9830709960183571    0.2635694312013304    0.7420152470295936 Zr
   0.2484261408717758    0.0091659612643463    0.7519242410118706 Zr
   0.2450962026841320    0.2480708300110002    0.4977276637063501 Zr
   0.0007684092042042    0.5118994247305864    0.0031429412125508 Zr
   0.9942588835812608    0.7449128771658529    0.2483426836408664 Zr
   0.2463295131276647    0.5004492139889355    0.2555634362265241 Zr
   0.2543029629975550    0.7392562890464747    0.0138562001983236 Zr
   0.9949538442214093    0.5062281543332543    0.4920922350674745 Zr
   0.9911756074824364    0.7568681578963459    0.7366157468270301 Zr
   0.2437503282010921    0.5014456505177094    0.7514092265152941 Zr
   0.2396774672902803    0.7480245389799011    0.5035501087681915 Zr
   0.5000713903210422    0.0042036725269868    0.0022126543233827 Zr
   0.4991610897550845    0.2418426122808732    0.2552306428716583 Zr
   0.7514415919557454    0.0047017885698184    0.2573338585004483 Zr
   0.7645039156247164    0.2413443940215841    0.9946936345019510 Zr
   0.5013516840103851    0.9903338241615713    0.4997829263928698 Zr
   0.4932617548211046    0.2485015098452183    0.7465995473803466 Zr
   0.7480030049884098    0.0114115552950164    0.7491113219875865 Zr
   0.7420185129078460    0.2496359596829301    0.4895411390557269 Zr
   0.5211756811036503    0.4936278326821165    0.9971872333655184 Zr
   0.5051955015460938    0.7389362156263930    0.2409819084941713 Zr
   0.7538025005182296    0.4899141979114761    0.2392249130485304 Zr
   0.7496023932889156    0.7496875504399669    0.9987973585658442 Zr
   0.4995966636829905    0.5027357323904290    0.4974706359843342 Zr
   0.4989956695435205    0.7512898751987547    0.7627318729547603 Zr
   0.7511900357836259    0.5079870899453850    0.7559657141662017 Zr
   0.7457008255001500    0.7530419590733110    0.5000015917629227 Zr
