2,2,2,2,2,2,2,2,2,2,2,2,2,2,2,2,2,2,2,2,2,2,2,2,2,2,2,2,2,2,2,2,2,2,2,2,2,2,2,2,2,2,2,2,2,2,2,2,2,2,2,2,2,2,2,2,2,2,2,2,2,2,2,2,2,2,2,2,2,2,2,2,2,2,2,2,2,2,2,2,2,2,2,2,2,2,2,2,2,2,2,2,2,2,2,2
1.0
  10.6682060259971561    0.0000000000000000   -0.0000000000000000
   0.2339793721505060    9.7552695391534385    0.0000000000000000
   0.3475048549709684   -0.3052689255234793   10.1657762120402531
O Zr
64 32
direct
   0.1280928273564735    0.1375412804827411    0.1415089229778831 O
   0.1822353501374216    0.3267414990751716    0.3203086276720712 O
   0.1214780722996389    0.0929064425331631    0.3868155490519891 O
   0.1651182535065889    0.4129621537989884    0.0728523423742930 O
   0.4174753380477986    0.3963698941538211    0.1787886044498343 O
   0.4295946521226405    0.3338792250335978    0.4356978467373783 O
   0.3786745232476430    0.0984764796566281    0.3644503980435773 O
   0.3743209122499892    0.1312830443058030    0.1179439268572453 O
   0.1283487577318350    0.1480794985873617    0.6314633994005319 O
   0.1712484881900652    0.3415923724304418    0.8261933262461968 O
   0.1267652317780402    0.1099091056767514    0.8877233584103088 O
   0.1797006441059139    0.4000625646643363    0.5739069049533094 O
   0.4288098108790671    0.4055537999216956    0.6925358956910435 O
   0.4194005854131813    0.3471319788980269    0.9307089489137119 O
   0.3689152215663745    0.1079250301715416    0.8687204316322039 O
   0.3792421653131894    0.1498868886946645    0.6218418565729262 O
   0.1198480266287897    0.6498721124425340    0.1272560159516206 O
   0.1836241480370970    0.8372294039835768    0.3211221302544127 O
   0.1281036708625188    0.5977529492565021    0.3799990238841492 O
   0.1915589130131991    0.9157062280383661    0.0615208304073499 O
   0.4289413467423252    0.9059368280862805    0.1916916857063982 O
   0.4199531156054960    0.8345207646251919    0.4356181101994994 O
   0.3722120570505649    0.5987657192227811    0.3757388143146423 O
   0.3681053342159936    0.6307647344171589    0.1265431332903422 O
   0.1363396296303704    0.6433274990008147    0.6368845350669582 O
   0.1940438474186784    0.8404275126036063    0.8193654101528061 O
   0.1187889681202257    0.6103354559429214    0.8902711308046415 O
   0.1832602918462378    0.9053898907021259    0.5634604685981375 O
   0.4247198322741943    0.9088338713048236    0.6834933920412852 O
   0.4437067930368644    0.8405291589241862    0.9352216575395095 O
   0.3677043071445055    0.6179973640565116    0.8700531709939020 O
   0.3710858995787804    0.6320577329466904    0.6191982104863469 O
   0.6291891441978399    0.1415084545220425    0.1332770741790784 O
   0.6799430905228703    0.3370883272609562    0.3167499098284547 O
   0.6274295451017711    0.0932111646202102    0.3732233162388817 O
   0.6682231227912936    0.4172856743820330    0.0560343867126774 O
   0.9190821571564106    0.4034612516502373    0.1782570275011307 O
   0.9266128769232095    0.3424719671279199    0.4400520315213768 O
   0.8687906758273063    0.0976016076089939    0.3712688216990090 O
   0.8812314189903140    0.1471191589847786    0.1170848605333520 O
   0.6290290055995074    0.1335878218086692    0.6240289160297011 O
   0.6857977967439789    0.3393931088799236    0.8040626386521161 O
   0.6211945601060904    0.1116622046605578    0.8798370346384902 O
   0.6766854194791817    0.4118801798189734    0.5633304220997271 O
   0.9446211123110666    0.4151040346044702    0.6904627455783116 O
   0.9205578908695651    0.3374751380678925    0.9276799095410441 O
   0.8768752575306125    0.1046725206182334    0.8725942986718263 O
   0.8791148604875620    0.1442830979126087    0.6200373426708522 O
   0.6285575823395255    0.6483114996001905    0.1314905959189639 O
   0.6935199474579168    0.8303561985852221    0.3123511105565371 O
   0.6279143963703089    0.6110837926398675    0.3816687450589963 O
   0.7004878149448969    0.9145838902880441    0.0621986859450154 O
   0.9395571579830493    0.9062369087615968    0.1872966834096643 O
   0.9418097647724061    0.8273583331980016    0.4471343451586500 O
   0.8754880798137432    0.6049045226303886    0.3680385424743782 O
   0.8723315314903469    0.6537563707092803    0.1145190524970599 O
   0.6228016210702283    0.6422031890674972    0.6283394355597396 O
   0.6768802073078705    0.8382242985227001    0.8068837934760864 O
   0.6066850801373560    0.6134645781842194    0.8831185730674486 O
   0.6724479028107456    0.9051559468857403    0.5638904763819821 O
   0.9226951204748493    0.8987989698584975    0.6789427136341402 O
   0.9424217660743649    0.8353745001054548    0.9356393251441700 O
   0.8690170280487443    0.5992848272208877    0.8717561157212802 O
   0.8802489002966142    0.6354415278175082    0.6133128942299121 O
   0.5037606069416151    0.0096344253465215    0.0090946515614320 Zr
   0.2553912602232613    0.0056306889343872    0.2423443244975345 Zr
   0.2545572076999044    0.2421584685715422    0.4850414772813883 Zr
   0.4936873981110639    0.2351431681727702    0.2574183280565057 Zr
   0.4972590640990818    0.0101597590909427    0.5182735799711836 Zr
   0.2423151807378908    0.0121314232466127    0.7328711953914592 Zr
   0.2495556892506226    0.2399946237907632    0.9958907248921359 Zr
   0.4962725556674194    0.2412167078602162    0.7729701331997889 Zr
   0.4978676535697219    0.5120190724162698    0.0103068653405829 Zr
   0.2502517574145863    0.5042149769921255    0.2323364391400443 Zr
   0.2450838707436211    0.7304276436197955    0.4807641813137179 Zr
   0.4979887068645020    0.7427467508384120    0.2739247416544422 Zr
   0.4934277823854419    0.5069649869267124    0.5179223594814220 Zr
   0.2495260414387299    0.5112440348935817    0.7421994216500390 Zr
   0.2499274196654194    0.7463366923453308    0.9887239284881673 Zr
   0.4924943819184431    0.7361182403853034    0.7522879927990410 Zr
   0.9986758511939597    0.0013682576391810    0.0146452357099567 Zr
   0.7533399828969832    0.0176944594750037    0.2263732848333223 Zr
   0.7475179904504939    0.2341648993533013    0.4781679974464455 Zr
   0.0009549472711034    0.2446361491983471    0.2626591072541532 Zr
   0.0041941636819297    0.0116753295484121    0.5177856682666032 Zr
   0.7516788416873669    0.0131633428126455    0.7296190835398483 Zr
   0.7553733913363176    0.2481313259191015    0.9900813482082333 Zr
   0.9986957814314643    0.2429313083294517    0.7716962470026226 Zr
   0.9908322268356238    0.5130496077107952    0.0176126691130520 Zr
   0.7547169815229915    0.5220391188456233    0.2356265207730028 Zr
   0.7538996544062023    0.7438216616608707    0.4825012988472600 Zr
   0.0108629143044028    0.7470939586277626    0.2721259232151437 Zr
   0.0069285572262337    0.5054241178284667    0.5145829171317279 Zr
   0.7511358053577341    0.5122370658927661    0.7237328180396174 Zr
   0.7388219072997033    0.7400083692817695    0.9764501963699823 Zr
   0.0049318671189866    0.7423587107659871    0.7663330152569321 Zr
