0,0,0,0,0,0,0,0,0,0,0,0,0,0,0,0,0,0,0,0,0,0,0,0,0,0,0,0,0,0,0,0,0,0,0,0,0,0,0,0,0,0,0,0,0,0,0,0,0,0,0,0,0,0,0,0,0,0,0,0,0,0,0,0,0,0,0,0,0,0,0,0,0,0,0,0,0,0,0,0,0,0,0,0,0,0,0,0,0,0,0,0,0,0,0,0
1.0
   9.9142036765031243    0.0000000000000000   -0.0000000000000000
  -0.3697949011328469   10.5660739018558818    0.0000000000000000
  -1.9603349489736708    0.3192237951653196   10.6029938973977025
O Zr
64 32
direct
   0.0178861119015627    0.1623967435144196    0.1644940800190466 O
   0.4693439311511415    0.4072101762837750    0.0732005171662401 O
   0.4636975821223403    0.3386939815804811    0.3222131588077679 O
   0.0164306473195742    0.0962145259744314    0.4250495967941758 O
   0.1850431290927664    0.3641242229897949    0.2342143877315157 O
   0.2857943307700214    0.1384896130717136    0.0203611859243818 O
   0.2501356598995855    0.1391921479983422    0.2430266445246590 O
   0.2439484801137298    0.3789659873679223    0.5143912329458756 O
   0.0468056556425707    0.1632515895443805    0.6793670752718168 O
   0.4752628419135796    0.3954289129861699    0.5669444139145791 O
   0.4718761328376584    0.3434356163968148    0.8214669604627142 O
   0.0323036169944451    0.0822013339503354    0.9318918619320398 O
   0.2416722184535983    0.4116300539040979    0.7292231858963585 O
   0.2651342418436194    0.1287816845727737    0.5061989054258798 O
   0.2841516991166023    0.1454521340512193    0.7695365438060435 O
   0.2207733371309768    0.3846471912577539    0.9815514096216058 O
   0.0269627532137901    0.6432628651772971    0.2076878410106852 O
   0.4811335525222433    0.8926665736103275    0.0804043599052939 O
   0.4665444262621630    0.8298134958567417    0.2950827480498591 O
   0.0551435541029998    0.5725019856969300    0.4275831796821744 O
   0.2304390202829071    0.8789557191215963    0.2422800833574454 O
   0.2543232012188447    0.6469535534328841    0.0100703694667037 O
   0.2750912621189188    0.6114288941207785    0.2506481835052514 O
   0.2239291325168824    0.8788767077340660    0.4947727395455302 O
   0.0218476067924074    0.6654241296819384    0.6715329081013174 O
   0.4838845809626954    0.8881848196063167    0.5465179334227668 O
   0.4679462751022007    0.8522051308968756    0.8205030460439284 O
   0.0171585866566924    0.6119400882380381    0.9395975071762620 O
   0.2303185261749956    0.8571704726323107    0.7300132177101141 O
   0.2830532631340760    0.6386944842344577    0.5080473530709181 O
   0.2714331760742756    0.6326163195562911    0.7429372309959872 O
   0.2354717304114660    0.8760380096832628    0.9752292650699191 O
   0.5212112511124111    0.1441422586246104    0.1979589205097202 O
   0.9698913626509310    0.4166163384145857    0.0728139118791234 O
   0.9706380984419081    0.3308585276184038    0.3399841495791806 O
   0.5057178301816315    0.1031724776266880    0.4462576039642251 O
   0.6854052101705166    0.3577985527686390    0.2094228869588410 O
   0.7708133259898233    0.1397328523908382    0.0158476094135299 O
   0.7520423775493563    0.1350778445088374    0.2516867540360430 O
   0.7506322883405604    0.3527837099235924    0.4732566577569713 O
   0.5449122731086441    0.1586165724896581    0.6870916207909935 O
   0.9938392144943330    0.3948358516549816    0.5779009077807608 O
   0.9861056089057587    0.3282997012090664    0.8477383533632012 O
   0.5181618343855376    0.1103463302599000    0.9378246606593350 O
   0.7243107892967559    0.3824453439782857    0.7294518793129033 O
   0.7599699244200145    0.1121255142545917    0.4989780524346514 O
   0.7792036838381354    0.1189547630324935    0.7687776974577518 O
   0.7565902138507434    0.3953984507684130    0.9866152037272666 O
   0.5149798491770289    0.6343907438242531    0.1707472385364982 O
   0.9598813091455773    0.9215361899637848    0.0954860294551790 O
   0.9904674023754547    0.8680845146264996    0.3161754635096774 O
   0.5163493833137361    0.6004482160265947    0.4288031929279779 O
   0.7192624528242090    0.8852347440606921    0.2322355281374203 O
   0.7699206046027051    0.6417140517191589    0.0112304121130566 O
   0.7796441183994871    0.6187588656299493    0.2521101203742148 O
   0.7122036564315785    0.8442859058341771    0.4938929313809429 O
   0.5389752982042028    0.6617324894854865    0.6824638865798059 O
   0.9699609991353537    0.9149401675488834    0.5545543336154437 O
   0.9656835958020900    0.8346541328865822    0.8097818607070304 O
   0.5302766453602659    0.5952229934868125    0.9153654547685869 O
   0.7371117577064581    0.8755658452793791    0.7206953783568114 O
   0.7754376916162981    0.6202867363165712    0.5060184077269733 O
   0.7927662299812118    0.6401699979825010    0.7521548988590223 O
   0.7068640826895075    0.8591343338289974    0.9917859126921615 O
   0.1288088236683862    0.0270103610880915    0.1098458027204798 Zr
   0.3369280641800699    0.2899258724479535    0.1545704866058857 Zr
   0.3510894783647792    0.4951384201929269    0.4065717354376692 Zr
   0.1160016584576074    0.2280866154364096    0.3470566353530717 Zr
   0.1512539590702086    0.0091831088281928    0.6045172308429918 Zr
   0.3840973761383644    0.2610058030567236    0.6440254367095265 Zr
   0.3621478101730248    0.4847127256590887    0.8923222301412516 Zr
   0.1478664338972624    0.2212031058267936    0.8778417785833494 Zr
   0.1349772490196772    0.5246439353720362    0.0931131934672063 Zr
   0.3711331686722162    0.7701656147358538    0.1187998116276529 Zr
   0.3714380264288885    0.9816743224268402    0.3761413353334884 Zr
   0.1437112285623433    0.7312206193684585    0.3459254534419944 Zr
   0.1376056278701616    0.5254873580681088    0.6105001153201364 Zr
   0.3660530046785974    0.7688624029173725    0.6397331825178901 Zr
   0.3626502477002520    0.9826167473296787    0.9098626374733397 Zr
   0.1503659903858901    0.7200771587923405    0.8478167895396291 Zr
   0.6414238308341601    0.0166731973798048    0.1082629040446522 Zr
   0.8457438384134640    0.2737913676353974    0.1516730732717576 Zr
   0.8870995606088677    0.4943359311091225    0.4240904074464863 Zr
   0.6241923270517161    0.2305331124139720    0.3481405665626163 Zr
   0.6414525924504315    0.0038555922445904    0.5895075713600169 Zr
   0.8584305323803803    0.2595617034698913    0.6538479136163142 Zr
   0.8575737277574067    0.4953706946215716    0.8859292095325502 Zr
   0.6347565019164328    0.2178732044877001    0.8641844343274463 Zr
   0.6396128486520093    0.5175186319002485    0.1148335873133749 Zr
   0.8540516719318060    0.7712936687923730    0.1747777238139148 Zr
   0.8669942273149500    0.9847205443495687    0.3943612078213348 Zr
   0.6179807024930216    0.7327979911638958    0.3526756893935181 Zr
   0.6326405193126186    0.5078135592388093    0.6047600994728258 Zr
   0.8717414497181782    0.7624139318870167    0.6325756454736948 Zr
   0.8664939957358619    0.9726022927502354    0.8889702650129191 Zr
   0.6499676492087215    0.7283133813212646    0.8501046687589082 Zr
