0,0,0,0,0,0,0,0,0,0,0,0,0,0,0,0,0,0,0,0,0,0,0,0,0,0,0,0,0,0,0,0,0,0,0,0,0,0,0,0,0,0,0,0,0,0,0,0,0,0,0,0,0,0,0,0,0,0,0,0,0,0,0,0,0,0,0,0,0,0,0,0,0,0,0,0,0,0,0,0,0,0,0,0,0,0,0,0,0,0,0,0,0,0,0,0
1.0
  10.2100807291877853   -0.0000000000000000   -0.0000000000000000
  -0.1918629427951741   10.0218379505930759    0.0000000000000000
  -1.2831283227574479    0.4093922612779988   10.4910977119615030
O Zr
64 32
direct
   0.0111775244225226    0.1663793617601313    0.1611216748722817 O
   0.4455539111004597    0.4053990716377358    0.0752046522072175 O
   0.4556079390675892    0.3310561794393885    0.3413724408949764 O
   0.0282589895462004    0.0988788964619777    0.4153818948451323 O
   0.2198672350061984    0.3458265740037288    0.2151971880240824 O
   0.2621607286661905    0.1133752894984226    0.9865715619156917 O
   0.2669148256664944    0.1078629116521493    0.2434688919909445 O
   0.1955737672491988    0.3800320487661093    0.4882523204278013 O
   0.0319369413700766    0.1462725972711983    0.6777447054556698 O
   0.4675828722897237    0.4282487055319157    0.5808781823709280 O
   0.4642902007142541    0.3293484269002892    0.8208967699424666 O
   0.0318221690672553    0.0923700283594285    0.9355306243320609 O
   0.2400362644423416    0.3852304665358459    0.7389566185301056 O
   0.2670303779974516    0.1341879884677126    0.4890768409629725 O
   0.2695916954689623    0.1431282395273360    0.7469638179010754 O
   0.2096782122941858    0.3879095925285602    0.9708178363154086 O
   0.0203965300175583    0.6657566500744615    0.1686188615499277 O
   0.4632842045632486    0.9224171107399664    0.0682811353652016 O
   0.4533574072916081    0.8345139973708650    0.3069654730532375 O
   0.0183498109894102    0.5864389177303181    0.4088225648503748 O
   0.2219856666686689    0.8678356269479703    0.2099317791396510 O
   0.2596379753081124    0.6212066664518380    0.9979621144184820 O
   0.2713012943261426    0.6135450891616101    0.2716603161793579 O
   0.1911694672639357    0.8998481381333086    0.4403904620040158 O
   0.0355716889889158    0.6839415983262256    0.6654052315365202 O
   0.4554061232692195    0.9059969986859743    0.5741242919730517 O
   0.4782444459436821    0.8597811238638042    0.8118695451657857 O
   0.0220470418062837    0.5784443524826436    0.9383423054554164 O
   0.2396565711481672    0.9020648865593803    0.7140557207144130 O
   0.2533419108657333    0.6314312996424272    0.5041883283451979 O
   0.3040858762305914    0.6323950619417357    0.7581973198410706 O
   0.2468068355857410    0.8487087984533872    0.9559046871964546 O
   0.5275240920988405    0.1609383384774008    0.1853463336236950 O
   0.9745939290274857    0.3876393965832786    0.0574602714845262 O
   0.9733022360254794    0.3578284115193040    0.3210389901487517 O
   0.5196480063808075    0.0908309579976830    0.4331180586964943 O
   0.7186250484068233    0.3849212634246769    0.2685397940282132 O
   0.7687452509723937    0.1263047363388513    0.0208710159614996 O
   0.7786040168554490    0.1230005443649750    0.2746108340898629 O
   0.7557489543119689    0.3672643389404454    0.5130342152817183 O
   0.5443842393353876    0.1570947060041147    0.6875851171489374 O
   0.9856412623829139    0.4099315134852615    0.6029891218234813 O
   0.9685144363852994    0.3237998960687640    0.8151402377226644 O
   0.5386450065809730    0.1030431487658980    0.9401434058568030 O
   0.7228454069863398    0.3848489574690245    0.7335410392304084 O
   0.7636439182839009    0.1250755350595217    0.5187907475015207 O
   0.7867008219670617    0.1007502888093859    0.7864983023170491 O
   0.7174849069904010    0.3678532519326565    0.0051661231348751 O
   0.5155911628270432    0.6586792288052942    0.1593555197845378 O
   0.9658145351331674    0.8994647262742940    0.0872132790029015 O
   0.9526534685334761    0.8183992828375560    0.3252768178976353 O
   0.5190411031280396    0.5997023039252229    0.4473143566330002 O
   0.7167712864814517    0.8629730513130190    0.2219303001196319 O
   0.7744926018063799    0.6162137498219418    0.0105475844700059 O
   0.7389064020135737    0.6103141545475808    0.2510284135565073 O
   0.7389383536854650    0.8649234093731286    0.4926006509221391 O
   0.5641130341397121    0.6762524306106650    0.6893474943669973 O
   0.9673456831466108    0.9368697396463120    0.5692432815482211 O
   0.9472593619274259    0.8315599184570318    0.8550723431421338 O
   0.5594873425619759    0.5576972997241983    0.9136284123034744 O
   0.7316987517150824    0.8651460356079520    0.7414745701139405 O
   0.7696375651293113    0.6241293493555988    0.5060649861879279 O
   0.7950761247798186    0.6279225579255848    0.7563121617915511 O
   0.7281190731043653    0.8647892627989102    0.9931684483903160 O
   0.1223115228678238    0.0171431006918880    0.1148644675119219 Zr
   0.3477566246734092    0.2430322390161556    0.1365154510635307 Zr
   0.3598471081959808    0.4766137797979048    0.4131057270545326 Zr
   0.1343093124993114    0.2294586983255704    0.3433048223441441 Zr
   0.1457062689573057    0.0336721473851392    0.5869530003022621 Zr
   0.3660273560628128    0.2844188369990351    0.6429939512724989 Zr
   0.3775323668182745    0.4740259876416225    0.8892214712349475 Zr
   0.1345199630821079    0.2219160453079604    0.8420556856912836 Zr
   0.1425224944292811    0.5165247654144113    0.0955371584860212 Zr
   0.3591145628034092    0.7619226218451762    0.1398277002059995 Zr
   0.3765090727574099    0.9794360664143648    0.3949388858113425 Zr
   0.1344285978624218    0.7380768782565270    0.3313053568967421 Zr
   0.1420346985209616    0.5247391027244650    0.5991385259459935 Zr
   0.3600075746900178    0.7735372419327343    0.6412249627824919 Zr
   0.3546090048273596    0.9884172274253513    0.8766260464921830 Zr
   0.1127076799586413    0.7209023106110325    0.8519820439675263 Zr
   0.6330589007006510    0.0270706134806543    0.1195754737056445 Zr
   0.8728724804225153    0.2743036141385902    0.1475411700565124 Zr
   0.8678077648029376    0.4852552930791726    0.3954800659581565 Zr
   0.6423203016088082    0.2368529338481119    0.3739103066428855 Zr
   0.6386351995829386    0.0075849191131663    0.6234954102030771 Zr
   0.8706042744267459    0.2619963790963914    0.6378248781222060 Zr
   0.8541799275054467    0.4761494994399976    0.8847380818231444 Zr
   0.6505915946123432    0.2296251923048966    0.8609233221612322 Zr
   0.6295504362691752    0.5088470144249488    0.1043808731427073 Zr
   0.8442471959752098    0.7496781788201883    0.1591609593814187 Zr
   0.8700886475260430    0.9736230480026106    0.3888848461823354 Zr
   0.6313756051316317    0.7296551370213503    0.3654488181754978 Zr
   0.6578931407383642    0.5328611547914210    0.6113495522196253 Zr
   0.8786680621060339    0.8022027484183767    0.6548177456842668 Zr
   0.8687790080473394    0.9886455620240455    0.9269047984380916 Zr
   0.6489659411333754    0.7430364960921164    0.8695340365669330 Zr
