0,0,0,0,0,0,0,0,0,0,0,0,0,0,0,0,0,0,0,0,0,0,0,0,0,0,0,0,0,0,0,0,0,0,0,0,0,0,0,0,0,0,0,0,0,0,0,0,0,0,0,0,0,0,0,0,0,0,0,0,0,0,0,0,0,0,0,0,0,0,0,0,0,0,0,0,0,0,0,0,0,0,0,0,0,0,0,0,0,0,0,0,0,0,0,0
1.0
  10.5367294235351814    0.0000000000000000   -0.0000000000000000
  -0.4564682466871510   10.0055535923566623    0.0000000000000000
  -1.6935525256566151    0.0462773458434142   10.9096646462002642
O Zr
64 32
direct
   0.0351139876990811    0.1676838949824372    0.1686107994291719 O
   0.4691442293602929    0.4100067244853273    0.0782830512299436 O
   0.4615419291307750    0.3257182782547516    0.3294325103156820 O
   0.0181569776269676    0.1159914684158543    0.4345779396483356 O
   0.2333258194337394    0.3738168631443507    0.2335655121431700 O
   0.2707888677307804    0.1338124869751304    0.0137855214506874 O
   0.2724354078741290    0.1028064004476574    0.2635695060160712 O
   0.2129876803738745    0.4048449391211849    0.4643883165065530 O
   0.0256730155927345    0.1554835721410884    0.6770936932578195 O
   0.4699764233480950    0.4197490087763106    0.5896281550451169 O
   0.4676830068386110    0.3336660318608483    0.8379552664603680 O
   0.0324944190599604    0.1030109979794673    0.9285955542848348 O
   0.2178226988706176    0.3923664018828593    0.7214671069051957 O
   0.2679349313692664    0.1485827077662701    0.5130564213309232 O
   0.2662341993791319    0.1211886281156992    0.7568230927222613 O
   0.2363744928563714    0.3714706839871914    0.9815944162068995 O
   0.0295838944398771    0.6589550721508621    0.1640123952868894 O
   0.4735154683808835    0.9053325658011505    0.0743587949591598 O
   0.4618669322274346    0.8399053349144942    0.3240406560371467 O
   0.0194679810699618    0.6017777108556281    0.4318492684503288 O
   0.2219952368839710    0.8742891928117350    0.2348581904570640 O
   0.2786194907838070    0.6183529790239600    0.0067389535136267 O
   0.2672966953118621    0.6253905604350376    0.2499318446740409 O
   0.2252550129882201    0.8642524410519973    0.4711278970697015 O
   0.0463016139564131    0.6548000213679978    0.6788267553741317 O
   0.4686052684495015    0.9083814514383302    0.5887416928197754 O
   0.4781329854514279    0.8320292860499467    0.8436384953689299 O
   0.0393744348556229    0.5795205589208454    0.9190751018632128 O
   0.2233469905127553    0.8786756109037284    0.7361725091428233 O
   0.2706411894051938    0.6398615334477176    0.5083583613664631 O
   0.3009991133747037    0.6343909396601746    0.7679010232104450 O
   0.2317437861224549    0.8634579525138306    0.9889214915471888 O
   0.5217622746245076    0.1476189960356785    0.1707206554555912 O
   0.9697952597553740    0.4275428361976171    0.0795484902922532 O
   0.9835982060427417    0.3533848359231706    0.3141187330348938 O
   0.5515725326853260    0.0649596815401503    0.4257171138177572 O
   0.7244031605265252    0.3723579106654352    0.2436582736872519 O
   0.7785872761847838    0.1259689442530205    0.0076830357777490 O
   0.7655870055161327    0.1162830676997189    0.2580466755209115 O
   0.7276225813852079    0.3495940452244175    0.4831644216154615 O
   0.5267176486922068    0.1652057791040431    0.6786056143695052 O
   0.9615737602660056    0.4014547389179283    0.5736822751448956 O
   0.9703510060531239    0.3190019340809482    0.8168605026648416 O
   0.5418487619957100    0.0718171406396668    0.9266024379421089 O
   0.7322319632559100    0.3873384653691829    0.7422277864352383 O
   0.7686288272291183    0.1088840943877151    0.5105118761225910 O
   0.7681491967173667    0.1119358482113639    0.7528273689934681 O
   0.7257806246109877    0.3559901082137980    0.9931355089703561 O
   0.5439712191317809    0.6824283365118688    0.1792303131591701 O
   0.9589438237039303    0.9076787449643844    0.0833601829472134 O
   0.9702225089224839    0.8504019530880915    0.3139972478432787 O
   0.5171766855956235    0.6044049725952891    0.4315322680463609 O
   0.7144304725274865    0.8718923423092090    0.2461363816838543 O
   0.7839192940223320    0.6323726901824748    0.0174552282930461 O
   0.7675579595245319    0.6056019637620217    0.2693827620286736 O
   0.7349207013008211    0.8659599699848942    0.4897891607109178 O
   0.5262536603416454    0.6601099965365782    0.6905681088761950 O
   0.9543844884195797    0.9080831597098231    0.5727255793033204 O
   0.9700742302504772    0.8455537564564206    0.8471093651186420 O
   0.5408404146343820    0.5879855427363192    0.9365623250627314 O
   0.7264249237605892    0.8744421629362069    0.7346007945341646 O
   0.7779008107971607    0.6250693231901379    0.5256168507431808 O
   0.7880287081941630    0.6085648037056901    0.7614974251104492 O
   0.7213031826647148    0.8740253193646882    0.9881209215128897 O
   0.1409452356831612    0.0161441448255075    0.0945024626177748 Zr
   0.3609788267128857    0.2638619435138144    0.1454289580892472 Zr
   0.3633828283044456    0.4944003376792476    0.4003817577125384 Zr
   0.1469727407538830    0.2310622823769176    0.3398612543320828 Zr
   0.1252622872308992    0.0348034396213680    0.5934653785673432 Zr
   0.3675410544543769    0.2800002907911080    0.6450766518704240 Zr
   0.3673158411612433    0.4867126332706162    0.9016770943391128 Zr
   0.1416687199263102    0.2580232653838116    0.8557528463582640 Zr
   0.1391318984165878    0.5195887794646528    0.1049696453134201 Zr
   0.3616166230531370    0.7685667650850314    0.1412101951489922 Zr
   0.3580712331953347    0.9676009637922209    0.3965492797073998 Zr
   0.1320452643567236    0.7182998287907795    0.3450518987685938 Zr
   0.1302022326775116    0.5241597177550402    0.5950067218758065 Zr
   0.3467865311303261    0.7711672570619316    0.6436026948679416 Zr
   0.3633918820045178    0.9804313322971836    0.8899537738019829 Zr
   0.1468857322243476    0.7276635120409117    0.8537113257504095 Zr
   0.6357085925835179    0.0160264534397725    0.1010137839098313 Zr
   0.8561137601659231    0.2691461049687843    0.1534849445517285 Zr
   0.8690021402670478    0.4655731192545643    0.3926816848849782 Zr
   0.6246476912926751    0.2152642936128273    0.3488615983008774 Zr
   0.6299424395718281    0.0162086790906568    0.6071400549243254 Zr
   0.8609587366999374    0.2557181969438621    0.6357071068188626 Zr
   0.8640942491349097    0.4761423982296840    0.8965699709758475 Zr
   0.6342514166827475    0.2253010453673198    0.8537454934642750 Zr
   0.6423258109780543    0.5199014121357531    0.1098841007654191 Zr
   0.8660484989616491    0.7658161711848316    0.1499447902708678 Zr
   0.8567625053894933    0.9850777995853093    0.3969963072337408 Zr
   0.6541039281005904    0.7293050725984173    0.3576749689789109 Zr
   0.6357645970965293    0.5207389235225793    0.6211061059113342 Zr
   0.8583864532654326    0.7754475521391176    0.6646946113623817 Zr
   0.8695504540835473    0.9966461646353709    0.9053358865013359 Zr
   0.6485634202840275    0.7351131567054150    0.8509276065816835 Zr
