1,1,1,1,1,1,1,1,1,1,1,1,1,1,1,1,1,1,1,1,1,1,1,1,1,1,1,1,1,1,1,1,1,1,1,1,1,1,1,1,1,1,1,1,1,1,1,1,1,1,1,1,1,1,1,1,1,1,1,1,1,1,1,1,1,1,1,1,1,1,1,1,1,1,1,1,1,1,1,1,1,1,1,1,1,1,1,1,1,1,1,1,1,1,1,1
1.0
   9.7455198534797614    0.0000000000000000    0.0000000000000000
  -0.3346468130772936   10.7170822368049148   -0.0000000000000000
  -0.2996791004262482    0.1594531106496807   10.3115619693342495
O Zr
64 32
direct
   0.1195787736792248    0.1178924680824399    0.1486445643112360 O
   0.3605182343588338    0.1112556929305552    0.0949559220816298 O
   0.3988538420880304    0.3634101605216178    0.1266338349692628 O
   0.1242439586202518    0.3692213689145841    0.1108100035472872 O
   0.1361956251038109    0.3894091629512277    0.3554523725212740 O
   0.3917305199020979    0.3735025920397465    0.3813218958382369 O
   0.3539635273833568    0.1445802569837907    0.3289989086608797 O
   0.1148764626560267    0.1370612489518664    0.3933453273385962 O
   0.0921395724792766    0.1161143242946203    0.6578952824193709 O
   0.3530705474812119    0.1461757013866237    0.5885116585971312 O
   0.3730521940848152    0.4051398734913258    0.6467238297488074 O
   0.1165881703002665    0.3715251398289314    0.6191187585533346 O
   0.1203554903363114    0.3796225330871137    0.8677271368207362 O
   0.3720839850139609    0.3684016641684978    0.8841904310049596 O
   0.3567518913269087    0.1203496283243005    0.8452234085019720 O
   0.1237007454660814    0.1216040989984807    0.9063035892614988 O
   0.1317649206563929    0.6286007669106353    0.1632440351525793 O
   0.3684231582121331    0.5983674374507892    0.0898989969857932 O
   0.3789532866659659    0.8499366807987337    0.1607235180207137 O
   0.1307488384882925    0.8658383667039566    0.1084751986485145 O
   0.1385365220919552    0.8705211376813915    0.3618364700222902 O
   0.3807959125935719    0.8645995280576997    0.4066266242078077 O
   0.3612079978265219    0.6172548417258417    0.3316582313300884 O
   0.0955860450237735    0.6431493049298836    0.4087690159003271 O
   0.1330047362993425    0.6276159488080931    0.6515073557991469 O
   0.3783133502941058    0.6442884893605325    0.6105530208830695 O
   0.3806620633082408    0.9035076590079586    0.6567561197265670 O
   0.1326031884474410    0.8785237617454199    0.6158611361485140 O
   0.1324097420316702    0.8743079977621496    0.8574804162158246 O
   0.3883569317122733    0.8692158629054355    0.9085780855375964 O
   0.4015816319040046    0.6007435065207926    0.8442479406116645 O
   0.1493988312508876    0.6269779664551038    0.9023969312964106 O
   0.6276677299241802    0.1235571261567479    0.1564798976526130 O
   0.8745160992027219    0.1220300719003952    0.0912275095856050 O
   0.8881726343126525    0.3803914337330250    0.1581867271467615 O
   0.6421605788173921    0.3681701146696644    0.0926485911194772 O
   0.6425504026564312    0.3886490553320728    0.3450764191770391 O
   0.8954610698541345    0.3743359748156753    0.3988697877810986 O
   0.8708386633618286    0.1408569020408009    0.3422179823575101 O
   0.6113478871320979    0.1519751857481038    0.4026443411626086 O
   0.6061775921007237    0.1277250170482447    0.6488288875338988 O
   0.8458430420722332    0.1138662424948264    0.5854885696904548 O
   0.8753436199633188    0.3796938542451417    0.6526283301805621 O
   0.6189079292416729    0.3865602248780321    0.5989747243887986 O
   0.6208482553800430    0.3606970257414450    0.8543319236793350 O
   0.8691650587975989    0.3658096776384526    0.9132620545079267 O
   0.8673898460068193    0.1186476906938765    0.8364221800586094 O
   0.6209742886505887    0.1018096459900319    0.9082277212076585 O
   0.6282041040651200    0.6334154331782738    0.1655663954090775 O
   0.8833247499817932    0.6329103231033535    0.1051630113095283 O
   0.8800967351007503    0.8796023720474219    0.1640519791211823 O
   0.6333841691065876    0.8712323952014553    0.0982869678341694 O
   0.6123669003020235    0.8957873885554353    0.3481942787598657 O
   0.8606192215761749    0.8902702577927497    0.4041281245065386 O
   0.8617290959362549    0.6455986491538100    0.3486470719946720 O
   0.6061834541131227    0.6473934019719192    0.4195431975549007 O
   0.6399134740278569    0.6401889886134686    0.6681372166301215 O
   0.8833403820121670    0.6338873251813983    0.5959746101876717 O
   0.8820585552804836    0.8749537961299054    0.6498550912488616 O
   0.6325859584116172    0.8716378510635969    0.6089208592037768 O
   0.6335776155178419    0.8574156317451178    0.8494813880622533 O
   0.8747603497190363    0.8648828586604602    0.8985218635696365 O
   0.8946188940619536    0.6101588755893717    0.8411559275689443 O
   0.6523516875489908    0.5984827236969427    0.9118357079424171 O
   0.0023657527678050    0.0001040027154875    0.0038227980801773 Zr
   0.0068081519285457    0.2511125641043283    0.2492996401073824 Zr
   0.2550322964639226    0.9945046560169463    0.2524749364686295 Zr
   0.2600013290582737    0.2417499531500655    0.9943024717488032 Zr
   0.0007251317913759    0.0011541724885308    0.5112515384165767 Zr
   0.9914270994532853    0.2491624679512267    0.7538051233475588 Zr
   0.2313614900000482    0.0010320667706323    0.7535543160976299 Zr
   0.2493862014254268    0.2620432634101175    0.4820918451815261 Zr
   0.9949736170185535    0.5008196414781020    0.0057126622887185 Zr
   0.0104001391724030    0.7529819250946904    0.2599589482051154 Zr
   0.2684924541633109    0.4851915161636778    0.2248574206405801 Zr
   0.2499040125341070    0.7526448593681876    0.0095503865459830 Zr
   0.0012432750767264    0.4920871968655278    0.5080848575686985 Zr
   0.0066789922571647    0.7395530314599637    0.7451589742030217 Zr
   0.2428881605753987    0.4990190266416185    0.7591926928123222 Zr
   0.2404573793938734    0.7524856080362567    0.4959685699517928 Zr
   0.5046231105894808    0.9896001055642688    0.0005596837624759 Zr
   0.5164282267617424    0.2586208251117419    0.2461013690308882 Zr
   0.7583544595463561    0.0032497931005939    0.2555114272925333 Zr
   0.7382057455883901    0.2326941208428702    0.9905403630095677 Zr
   0.5010990640812374    0.9997511571985697    0.5113453518080761 Zr
   0.4767101610855767    0.2541500635806770    0.7400423148591797 Zr
   0.7350812929289520    0.0010007050014807    0.7378118534345770 Zr
   0.7461536575362032    0.2649576606269247    0.4859448954874019 Zr
   0.5040398403475674    0.4894795783051312    0.9894777826815258 Zr
   0.5048742001283796    0.7503010313784055    0.2665804510485307 Zr
   0.7565206266328210    0.5129686623816918    0.2395344311313362 Zr
   0.7466069865017385    0.7544650142519395    0.9951927417609798 Zr
   0.4935536769908079    0.5070431447488897    0.5082313213444573 Zr
   0.5031390444311572    0.7547053567606765    0.7510893211845808 Zr
   0.7362058223265108    0.4978710491913733    0.7600810482648949 Zr
   0.7616059224776527    0.7444976390024618    0.4957790285897942 Zr
