0,0,0,0,0,0,0,0,0,0,0,0,0,0,0,0,0,0,0,0,0,0,0,0,0,0,0,0,0,0,0,0,0,0,0,0,0,0,0,0,0,0,0,0,0,0,0,0,0,0,0,0,0,0,0,0,0,0,0,0,0,0,0,0,0,0,0,0,0,0,0,0,0,0,0,0,0,0,0,0,0,0,0,0,0,0,0,0,0,0,0,0,0,0,0,0
1.0
  10.4510805062742200   -0.0000000000000000   -0.0000000000000000
   0.2572260208355484   10.9609479963821457    0.0000000000000000
  -1.4814733995058293   -0.0220297799635587   10.5361292878201773
O Zr
64 32
direct
   0.0518078122156851    0.1734153112637186    0.1696844200997729 O
   0.4960258010322408    0.3898600735739222    0.0650811997146502 O
   0.4815483653448309    0.3502747987944791    0.3112708316128223 O
   0.0290101535187636    0.0682176097074551    0.3870419203012345 O
   0.2408030798578933    0.3816173350153040    0.2450784678567880 O
   0.2746965105171342    0.1345193842787133    0.0010705456142266 O
   0.2942308784685043    0.1178164682701310    0.2630670908152304 O
   0.2204133697951035    0.3769827529557646    0.4810891256582795 O
   0.0187680409176459    0.1460275044608401    0.6619104167563653 O
   0.4706275015257279    0.4147136251945136    0.5749072786532972 O
   0.4745784938199091    0.3551258702514960    0.8206003476433006 O
   0.0364524821928128    0.0786193551693795    0.8991898173033974 O
   0.2359354671120277    0.3881319565148692    0.7387947188061168 O
   0.2655083918332291    0.1154360345007798    0.5002333790828434 O
   0.2529527686978820    0.1492026821680126    0.7529054757585649 O
   0.2331731684269659    0.3679993928038101    0.9881931575703059 O
   0.0344844824634837    0.6460429825534549    0.1821918104800654 O
   0.4726620123928812    0.8769365125837539    0.0407517851167933 O
   0.4738741959668743    0.8463127591197365    0.3441318342108297 O
   0.0460589099207962    0.5786492658858196    0.4490029421780896 O
   0.2220616624694632    0.8738524882985879    0.2460861097535397 O
   0.2888487278037715    0.6257138692610531    0.0334756491748566 O
   0.2891314715594056    0.6276413844405700    0.2490439958755358 O
   0.2247717428568167    0.8606504335953628    0.5026652931093371 O
   0.0099981685928775    0.6644882583426571    0.7008653434555340 O
   0.4830203887859923    0.8955707418354967    0.5688840497267728 O
   0.4741274100166934    0.8795144454485603    0.7961360466406572 O
   0.0196010563761778    0.6117275152876146    0.9234194103281443 O
   0.2028687369386170    0.8934599702879167    0.7402331299707862 O
   0.2831799129929465    0.6304576455344097    0.5014116320029506 O
   0.2500716228995850    0.6408064080647479    0.7634334012395313 O
   0.2344444988010490    0.8900948895953996    0.9816892014562502 O
   0.5361421972482252    0.1407111707241978    0.1943740030570278 O
   0.9603475216421445    0.4058119233241383    0.0665289426459782 O
   0.0066250725893227    0.3494002956038375    0.3169924277847380 O
   0.5266644195820678    0.1057196488718876    0.4516705067867064 O
   0.7466268784066381    0.3543292272729747    0.2441320951113884 O
   0.7679130257450857    0.1257002902030051    0.0227595802641875 O
   0.7665517792628973    0.1276648364635037    0.2620038353829959 O
   0.7475634005299905    0.3990950551655134    0.4927717390011408 O
   0.5491090505324396    0.1606452858249255    0.7072043441526124 O
   0.9968940763493349    0.3953653607646697    0.5835547124699384 O
   0.9655728984605805    0.3448606650293675    0.8244876396725800 O
   0.5287508954878127    0.1054822701490324    0.9190589319261652 O
   0.7384292319919861    0.3456155293490876    0.7422455859516093 O
   0.7646089441871343    0.1337056500363547    0.5097442366437733 O
   0.7826557143008640    0.1114309807940744    0.7627858334265692 O
   0.7227737096018794    0.3776645046268212    0.9878161166389089 O
   0.5223998025800880    0.6508978520660317    0.1971537373408371 O
   0.9752763465077781    0.9051589429547017    0.0648121810150337 O
   0.9544769810101005    0.8260396672079955    0.3239921927254791 O
   0.5232804221750585    0.5786559124940013    0.4214346516925337 O
   0.7312261243444553    0.8584779435806976    0.2583917832374329 O
   0.7565387027973459    0.6378486692531080    0.0408108862803221 O
   0.8034965048058326    0.6093936077387413    0.2714845296656176 O
   0.7220824990401816    0.8574657607317419    0.4819459511824723 O
   0.5099068670258559    0.6743556168312913    0.6842123880003622 O
   0.9412769698069005    0.9152190529564946    0.5658366163835697 O
   0.9471860112399562    0.8558857680003660    0.8082164381604477 O
   0.5343502184783242    0.5888954808060850    0.9253847361925428 O
   0.7038660499244651    0.8763478133641998    0.7469020414828369 O
   0.7815551231094123    0.6365278940726883    0.5164225741791091 O
   0.7363293603058596    0.6151277280210543    0.7738840333257652 O
   0.7349922640457410    0.8674651017890770    0.0016989314681904 O
   0.1445437616099182    0.0288568002477813    0.0992705175238403 Zr
   0.3800094456689389    0.2833624861713755    0.1563569656936917 Zr
   0.3691001640398009    0.4772372801070464    0.3904437721313401 Zr
   0.1633365628899016    0.2284482433977635    0.3504444420465067 Zr
   0.1030054153799613    0.0211799725611000    0.5775531634026639 Zr
   0.3818568536274844    0.2679148288134797    0.6705229742925469 Zr
   0.3526998734331373    0.4754009183553884    0.9003313087345914 Zr
   0.1279256750539010    0.2287625328139365    0.8467028914985593 Zr
   0.1460320233038600    0.5122012660309387    0.0931332337231611 Zr
   0.3630667505727141    0.7727452967931679    0.1568367502769963 Zr
   0.3689314932635482    0.9705985580220280    0.4126741055964734 Zr
   0.1261841564134062    0.7186504853429733    0.3636201374852934 Zr
   0.1574663535105739    0.5106972344803522    0.6038913578495367 Zr
   0.3550351301251221    0.7630716393360688    0.6461331388814474 Zr
   0.3514276633415655    0.9847368343838355    0.8796440152944883 Zr
   0.1187449935343634    0.7503073109854340    0.8469441976965516 Zr
   0.6229072125343208    0.0081307612653762    0.0833719267203237 Zr
   0.8786442078577046    0.2694093652095602    0.1528165513175012 Zr
   0.8812057535297648    0.4649534062856471    0.3926522894021844 Zr
   0.6337802762525161    0.2141637417430087    0.3604633622700872 Zr
   0.6483020925243494    0.0128320467458675    0.6170001285116112 Zr
   0.8670640206648605    0.2745263008247945    0.6436540947385291 Zr
   0.8523783794209238    0.4838819851428259    0.8983141397421258 Zr
   0.6354991516743438    0.2607830226496070    0.8655313731335870 Zr
   0.6434938240993459    0.5201743423665999    0.1184445571812253 Zr
   0.8809487629329060    0.7664756501309036    0.1385549779924944 Zr
   0.8503219323903388    0.9716050437775193    0.3697781585409959 Zr
   0.6355756032501959    0.7330584239296098    0.3565751276365811 Zr
   0.6425863919069363    0.5272482281181192    0.6057709069001442 Zr
   0.8447117960034742    0.7737631767324884    0.6415040188158477 Zr
   0.8492974510658754    0.9872720390706536    0.9000673800826136 Zr
   0.6114269286119557    0.7398588493977135    0.8514809427282642 Zr
