0,0,0,0,0,0,0,0,0,0,0,0,0,0,0,0,0,0,0,0,0,0,0,0,0,0,0,0,0,0,0,0,0,0,0,0,0,0,0,0,0,0,0,0,0,0,0,0,0,0,0,0,0,0,0,0,0,0,0,0,0,0,0,0,0,0,0,0,0,0,0,0,0,0,0,0,0,0,0,0,0,0,0,0,0,0,0,0,0,0,0,0,0,0,0,0
1.0
   9.8613313603518158    0.0000000000000000    0.0000000000000000
  -0.4124787173887287   10.0582607056436206    0.0000000000000000
  -1.6480893439897366   -0.3435867981487009   10.4813906351603414
O Zr
64 32
direct
   0.0298907401502647    0.1508429768606322    0.1852642971807619 O
   0.4784359661333300    0.3909856258462712    0.0682763911402537 O
   0.4743835931806551    0.3403715029871072    0.3219575106264873 O
   0.0420690883977345    0.0812131101221069    0.4134716409063313 O
   0.2319622773534214    0.3787361238304576    0.2304254070827362 O
   0.2874441876578097    0.1235634168533338    0.0028165101108789 O
   0.2758622155265715    0.1184596959015387    0.2493484049752735 O
   0.2407873775429833    0.3799024708133216    0.4938433000709181 O
   0.0447322444215243    0.1797700972701672    0.6692177925961535 O
   0.4859004640607014    0.4058098578975659    0.5537055852523540 O
   0.4831230177105281    0.3475449181003649    0.8013628269729600 O
   0.0404404789465031    0.0868755150976350    0.9354404590655742 O
   0.2238959472709747    0.3908607962265002    0.7283876345367419 O
   0.2567898327369027    0.1336765218684705    0.5123831838863473 O
   0.2900033233869150    0.1105782776831048    0.7393796979003108 O
   0.2286628091121555    0.3501996915431081    0.9879649270739720 O
   0.0312733938206264    0.6590472293081074    0.1611451371570946 O
   0.4734139133879566    0.9026994011357012    0.0701494879346945 O
   0.4762252528125964    0.8418263798912468    0.3149441579752267 O
   0.0369279322689658    0.5691822906055559    0.4117216136018943 O
   0.2186972718648945    0.8665092932133259    0.2196613202523559 O
   0.2652021435511640    0.6058164489229606    0.0174402738017219 O
   0.2877146133359084    0.6303183116624786    0.2597710000013131 O
   0.2218604493397412    0.8807093771649941    0.4879178022374858 O
   0.0297093896129505    0.6571385748915414    0.6839927528080655 O
   0.4768707230839971    0.9182907159598717    0.5826330635378117 O
   0.4606333781413423    0.8452063086022579    0.8169929356677395 O
   0.0136354647652561    0.5868490169760705    0.9156424475303591 O
   0.2079008374977133    0.8712051738825951    0.7350330084784731 O
   0.2668571012929009    0.6319039337029224    0.5100835534137319 O
   0.2799031388527075    0.6264924267418176    0.7813718394510265 O
   0.2186339328532122    0.8789093531003972    0.9827999816402622 O
   0.5534583074359078    0.1531709063324372    0.2061397579679986 O
   0.9689746835972340    0.3921100453250479    0.0779082576085581 O
   0.9597316451317085    0.3188512576719918    0.3327140297683077 O
   0.5114612223004498    0.0968221488462409    0.4147524717013372 O
   0.7256147835291488    0.3705507311924940    0.2346595271861437 O
   0.7706163395351180    0.1082541597949166    0.0118927534750825 O
   0.7823749002817120    0.1055755639046678    0.2551811986691672 O
   0.7244621102960968    0.3985154247582695    0.4839769299488949 O
   0.5495337101694198    0.1582736743912190    0.6806724307428562 O
   0.9535206700478205    0.4185624899837869    0.5721726300880547 O
   0.9951566516769753    0.3372126465785900    0.8330742676080427 O
   0.5217782678139250    0.1022680554289447    0.9317824290355339 O
   0.7322843577318204    0.3678263962023711    0.7373922344686817 O
   0.7536657825765933    0.1509049152133701    0.5106369404309606 O
   0.7823094016890777    0.1055403066854623    0.7551148082345014 O
   0.7146744540623380    0.3563153900239074    0.0068083849733274 O
   0.5421564935501617    0.6634705811882168    0.2002303414644077 O
   0.9454383342135589    0.9130802704401461    0.0635847098441632 O
   0.9861363739788953    0.8295873597416784    0.3052840072829754 O
   0.5082417579579477    0.5995902142954045    0.4341002059437503 O
   0.7289293012015253    0.8782242195405274    0.2677359891144894 O
   0.7589396636663878    0.6162668797813584    0.9939717775379551 O
   0.7891818352800419    0.6011510609889366    0.2495659759426554 O
   0.7195234325460522    0.8975928214898992    0.4961637416751469 O
   0.5233899183031518    0.6371505893367833    0.7028892638049548 O
   0.9749357573518422    0.9111611341513193    0.5703724668695688 O
   0.9631691988895944    0.8486014836922402    0.8072239994870268 O
   0.5236469172735603    0.5904633585688637    0.9338834077573962 O
   0.7152915785673295    0.8719398581338994    0.7622814065146971 O
   0.7709032475677660    0.6341184683378236    0.5104695053776278 O
   0.7679556326223589    0.6158761916537179    0.7527972045075195 O
   0.7131199358258404    0.8632094079209591    0.0152260635783048 O
   0.1503838740407395    0.0335334362337038    0.1117886915376926 Zr
   0.3645559284719785    0.2713102304113952    0.1433090481105823 Zr
   0.3555509797482208    0.4649228767832598    0.3867690621987762 Zr
   0.1371139271683511    0.2341719891261717    0.3499314605159635 Zr
   0.1344903311100320    0.0227358646906373    0.6031708163506766 Zr
   0.3726752986250716    0.2690394748117740    0.6315676106750441 Zr
   0.3583516367316876    0.4661044701323434    0.8897060969865611 Zr
   0.1471556281199858    0.2286623336876867    0.8551719096158732 Zr
   0.1217303550828578    0.5164603576711225    0.1040166784016940 Zr
   0.3760999189076268    0.7511552895863450    0.1395412866298180 Zr
   0.3598603124958768    0.9928101874889340    0.4135227227826430 Zr
   0.1549164396078598    0.7323298394171652    0.3501963295106069 Zr
   0.1304499953420316    0.5257025140432835    0.6073453409269501 Zr
   0.3667020681713243    0.7795649864533604    0.6454694491592626 Zr
   0.3651021813526613    0.9868831627873713    0.8966995844589301 Zr
   0.1427101677622042    0.7528790818216801    0.8661658649039673 Zr
   0.6285892505722187    0.0189775402285648    0.1145083285584117 Zr
   0.8585534790264376    0.2524933563282666    0.1526248691021645 Zr
   0.8506109059147874    0.4789914608288248    0.3878105649325241 Zr
   0.6397044120183537    0.2340185725745174    0.3553792481986831 Zr
   0.6473407733765276    0.0324570428119903    0.5980143845582484 Zr
   0.8796550801897002    0.2755639664744511    0.6552885212540245 Zr
   0.8458194977872334    0.4765129734895605    0.8965189059625436 Zr
   0.6376912041480775    0.2204474012106797    0.8442195766005468 Zr
   0.6499541798274372    0.5143182432836285    0.1163387625215961 Zr
   0.8580769370306516    0.7695414538447733    0.1363761021180691 Zr
   0.8792999336847800    0.9821377314289352    0.3825169688410022 Zr
   0.6333245483940007    0.7515402603258851    0.3649902089391478 Zr
   0.6257202441823830    0.5217489408139785    0.5988326405701205 Zr
   0.8506759603355465    0.7622775134406635    0.6458166167371787 Zr
   0.8511019338807332    0.9808036744239856    0.8926707378230320 Zr
   0.6242031501566622    0.7255671232894603    0.8715786520402166 Zr
