1,1,1,1,1,1,1,1,1,1,1,1,1,1,1,1,1,1,1,1,1,1,1,1,1,1,1,1,1,1,1,1,1,1,1,1,1,1,1,1,1,1,1,1,1,1,1,1,1,1,1,1,1,1,1,1,1,1,1,1,1,1,1,1,1,1,1,1,1,1,1,1,1,1,1,1,1,1,1,1,1,1,1,1,1,1,1,1,1,1,1,1,1,1,1,1
1.0
  10.5876882592046027    0.0000000000000000    0.0000000000000000
   0.3513793448084040   10.8235402058339929   -0.0000000000000000
  -0.0287662213243649    0.2655098329088239   10.5463489780731976
O Zr
64 32
direct
   0.1008525193289571    0.1223024411018030    0.0916709012104615 O
   0.3581334368760388    0.0992174060699261    0.1380877117880152 O
   0.4010712724982951    0.3715711970936024    0.1018495090417768 O
   0.1454310894850506    0.3503877044716625    0.1301042479015980 O
   0.1391207211662558    0.3534920063850375    0.3815192610414748 O
   0.3998937118306203    0.3678000953955854    0.3501143443837187 O
   0.3974145347229151    0.1378191047204717    0.3659720657475490 O
   0.1570273968059156    0.1111248220122950    0.3409894360291706 O
   0.1438561626609707    0.0967515068009534    0.5915440925263018 O
   0.4016547223160686    0.1475313149775945    0.6375684247391999 O
   0.3476672001184273    0.3961604083842591    0.5575058767943599 O
   0.1074816528380907    0.3756708527482051    0.6326227984842332 O
   0.1171628491428031    0.3856738187292232    0.9032258538954908 O
   0.3743624520068868    0.3828680260229290    0.8262780628839075 O
   0.3915790674127971    0.1421697794831353    0.8902863179116425 O
   0.1790288821802669    0.1542661866500727    0.8274660387726297 O
   0.1132347393560436    0.6345364858898370    0.0747173171908413 O
   0.3751755988370882    0.5910239231257500    0.1350080908341167 O
   0.3923476316947622    0.8488883874046109    0.0927546087118691 O
   0.1056062784362832    0.8961429762934651    0.1699560435015561 O
   0.1471717470628576    0.8362802501677890    0.4236472982251233 O
   0.3897996423968286    0.8720616183277141    0.3660717759507848 O
   0.3570925313942717    0.6315039037300253    0.3925253686282169 O
   0.1115609555961393    0.6034033325154262    0.3038383625994364 O
   0.1416667720849155    0.6182318742662153    0.5963710161570140 O
   0.3732827790992982    0.6237475102917026    0.6384287813819457 O
   0.3600340100957957    0.9282065479771430    0.5902706507477372 O
   0.1534036113441670    0.8627487126024376    0.6820391769753625 O
   0.1475623289149973    0.9011565741027280    0.9271173690657041 O
   0.3724502485555594    0.8642528888623645    0.8423731894962465 O
   0.1233549768037116    0.6287620772865474    0.8466426855932956 O
   0.8765479791031964    0.6252952999081449    0.8985613154564274 O
   0.6265203506769360    0.1383754173300074    0.0815244855245708 O
   0.8716787899676846    0.1080631642762008    0.1867804790639394 O
   0.9044605282777480    0.3380228328676278    0.0974992951625105 O
   0.6604370054829957    0.3844497371418082    0.1415585766129991 O
   0.6257091422161334    0.3958473613913843    0.4239188898352583 O
   0.8528087436996559    0.3469228654686995    0.3438534930182576 O
   0.9009278462716516    0.1087890843904187    0.4177520509476755 O
   0.6401170573562028    0.1286593303380647    0.3379743892991496 O
   0.6587903589149674    0.1119021089732102    0.6203261559333727 O
   0.9127141139927855    0.1105074506989561    0.6778371039743517 O
   0.8882809416146230    0.3608830168053396    0.6232747291945698 O
   0.5985031294447417    0.3878855005732949    0.6355001501689813 O
   0.6213565290822982    0.3710817582917370    0.8832838125371718 O
   0.8382777419696542    0.3797869845679807    0.8383031138151512 O
   0.8826742021280229    0.1265261525343618    0.9357893081879679 O
   0.6646587785454315    0.1471930691534664    0.8393400999724212 O
   0.6092882282998788    0.6592768901556951    0.0750952663567837 O
   0.8686704374398048    0.6044374536952443    0.1311687730584406 O
   0.8648770444786394    0.8520624706868785    0.1387961290720945 O
   0.6382843271304870    0.8780947995375138    0.1540365967765271 O
   0.6238550899010473    0.8921150403835407    0.4241012170656579 O
   0.9056700720691142    0.8447102276987642    0.3931502192579183 O
   0.8653500071129430    0.6142417365950118    0.3850907856874269 O
   0.6281611821249159    0.6129439968994521    0.3457251960446832 O
   0.6409592797582879    0.6321600424712013    0.6005037668265224 O
   0.8684048805561202    0.5907922877290021    0.6479848176755989 O
   0.8911138715158015    0.8652240129717088    0.6224789467757015 O
   0.6126668097779993    0.8743537425990126    0.6544678803584433 O
   0.6155985966268782    0.8871276105812379    0.8846636118715437 O
   0.8793169427459325    0.8918368840730541    0.8730155604790283 O
   0.6577843441293095    0.6338134733352659    0.8603295733115106 O
   0.3876451425078419    0.6296682659473121    0.8909529518732738 O
   0.9694405550822013    0.0030800227617864    0.0354350093171558 Zr
   0.0112524611264111    0.2570134431888035    0.2389744990270990 Zr
   0.2671084818057614    0.9840645986403816    0.2586743870292840 Zr
   0.2469096818920264    0.2340699092739204    0.9811175682041976 Zr
   0.0370834900970439    0.9678811352331850    0.4914625839118545 Zr
   0.9852663889558382    0.2616141678702571    0.7639857730245571 Zr
   0.2825398570801665    0.0187961182985152    0.7334488099703687 Zr
   0.2490961649091584    0.2353191896883585    0.4709526691868898 Zr
   0.9904127652088172    0.5091655267350191    0.9957702204937516 Zr
   0.9867201675562713    0.7311497659152807    0.2298866258968557 Zr
   0.2771385849779637    0.4789075480880806    0.2538474633985717 Zr
   0.2490050614563167    0.7500653639108311    0.9749640240122761 Zr
   0.9982728615177293    0.4916726934059065    0.5117455392212928 Zr
   0.0021320162932508    0.7800606932234874    0.7798833784658890 Zr
   0.2309355626082750    0.4913082795665120    0.7356785201239858 Zr
   0.2611925720779554    0.7600208397812137    0.5392911960646221 Zr
   0.5103741013484759    0.0047760978046021    0.0183226486627512 Zr
   0.5165216464695729    0.2472372666743960    0.2355853016210285 Zr
   0.7598076189201441    0.9954525310259594    0.2820664015371400 Zr
   0.7504714527295134    0.2685990894678560    0.9826749466708261 Zr
   0.5222786097361745    0.0146309166035189    0.5072557310518072 Zr
   0.5170818358272141    0.2623565641387483    0.7623562233542653 Zr
   0.7596244428159709    0.0192691778558242    0.7481774319534787 Zr
   0.7649384882037386    0.2483256622521474    0.4872700071260939 Zr
   0.5098798166222368    0.5034395774164708    0.9979068677872225 Zr
   0.4707334355919244    0.7383236787209049    0.2416258409045711 Zr
   0.7489362625227101    0.4834578751134035    0.2769783321292752 Zr
   0.7403192321558737    0.7568874622968371    0.9974510496922595 Zr
   0.4753176841216682    0.5024325934333979    0.5015513576022771 Zr
   0.5229376560322359    0.7546864414950010    0.7675468518375268 Zr
   0.7137790499751232    0.5116456730376123    0.7177629700134375 Zr
   0.7763903868492962    0.7573013046032356    0.4955649467096295 Zr
