0,0,0,0,0,0,0,0,0,0,0,0,0,0,0,0,0,0,0,0,0,0,0,0,0,0,0,0,0,0,0,0,0,0,0,0,0,0,0,0,0,0,0,0,0,0,0,0,0,0,0,0,0,0,0,0,0,0,0,0,0,0,0,0,0,0,0,0,0,0,0,0,0,0,0,0,0,0,0,0,0,0,0,0,0,0,0,0,0,0,0,0,0,0,0,0
1.0
  10.5142230279699760    0.0000000000000000    0.0000000000000000
   0.2320510552306337   10.8476319472474625    0.0000000000000000
  -2.0139687107899844   -0.3780127585001144   10.6864156570927946
O Zr
64 32
direct
   0.0373590790357391    0.1661020724512718    0.1814213234456415 O
   0.4515118595420797    0.4110234813904681    0.0615404633230326 O
   0.4749153910617183    0.3371259275691362    0.3366281769147137 O
   0.0440275492012304    0.1002949466197388    0.4391572846864839 O
   0.2460897977090362    0.4061123589693328    0.2503331929938958 O
   0.2607728507007570    0.1323043597612789    0.0162581679278668 O
   0.2951550632580118    0.1472454684644921    0.2774936558201153 O
   0.2356362012360084    0.3653069628219686    0.4915128568589600 O
   0.0437518216660616    0.1743743938652153    0.6734002391460143 O
   0.4610587238337817    0.4225555244256473    0.5773326585893277 O
   0.4597257275127196    0.3066042111673300    0.8175999726719343 O
   0.0333641668486390    0.0771809834725485    0.9121460198986678 O
   0.2341017269839152    0.3657588243746397    0.7467617145888736 O
   0.2913438007458028    0.1255139910729933    0.5183159826862705 O
   0.2964041168505059    0.1158085409406824    0.7543798352302850 O
   0.2179532710346027    0.3594902026154660    0.0078847743812094 O
   0.0290424143616471    0.6649505294572086    0.1858604753392434 O
   0.4619873013148454    0.9172539393826236    0.0586168574665391 O
   0.4748777988387174    0.8583874836422709    0.3202182356371996 O
   0.0560138680750698    0.5715712326758503    0.4194486287481188 O
   0.2353643482821058    0.8934268582852548    0.2405805540133198 O
   0.2736022167214360    0.6367005661694924    0.0222612393934074 O
   0.3070320712652679    0.6474083447955631    0.2672259193572188 O
   0.2357788891535750    0.8856935157971019    0.4888356804774657 O
   0.0379023238095741    0.6626347389815201    0.6768443595584158 O
   0.4838854789605099    0.9113653791443866    0.5711419852033368 O
   0.4594298794815201    0.8303567498076196    0.8264687728142062 O
   0.0367843574760638    0.5880727954920479    0.9381755491370686 O
   0.2183149131027507    0.8757458602213269    0.7322544027478727 O
   0.2609798295889793    0.6413915018196221    0.5259749689943388 O
   0.2775352137015121    0.6209390223912230    0.7717876590759286 O
   0.2116359042971943    0.8771196342334563    0.9897423188924868 O
   0.5286147516921442    0.1763129948188574    0.1732633958488297 O
   0.9583131168100386    0.4056461374070993    0.0670102853546324 O
   0.9447844123011969    0.3243043559079424    0.3402072490589471 O
   0.5367054099439661    0.0937919695381476    0.4254682365627656 O
   0.7317219836438621    0.3780136544273208    0.2326611678678044 O
   0.7741929458437293    0.1236414461500601    0.0107453710752665 O
   0.7739115875235220    0.1238405715800963    0.2531358174716477 O
   0.7171541798038346    0.3747472314812717    0.4889772847673003 O
   0.5306866166311935    0.1645837410322154    0.6470637422109358 O
   0.9763863379565428    0.4125791488336929    0.5763205205584790 O
   0.9726332623863192    0.3462837827563165    0.8216019569641712 O
   0.5313376207173138    0.0728264549237368    0.9118295485664156 O
   0.7155543457919314    0.3581298312770996    0.7327847060583412 O
   0.7796837916733593    0.1269949864645155    0.5045005360915080 O
   0.7814350541529751    0.1209733568266679    0.7527537618247959 O
   0.7120114259866702    0.3708001442004955    0.9751067078682989 O
   0.5402941753704869    0.6682753497620258    0.1642216294043559 O
   0.9790618409110456    0.9059133631123999    0.0900537698027184 O
   0.9574293828811955    0.8306784139642487    0.3451054269307069 O
   0.5500226389152153    0.5770749447261179    0.4209578073462109 O
   0.7451410853717744    0.9039699754855858    0.2325461737819076 O
   0.7731194016042047    0.6223625777550790    0.0080918295970086 O
   0.7903237065182329    0.6259908728849947    0.2753391798350157 O
   0.7433328123550734    0.8595401135486892    0.4866593461062152 O
   0.5377179521286279    0.6644144225286649    0.6730067882982355 O
   0.9634958818491678    0.9292732653169843    0.5889109475002476 O
   0.9753706676354831    0.8282630607728152    0.8411433487741928 O
   0.5320183491549195    0.5745159914612619    0.9083664208641503 O
   0.7211724441014189    0.8783316188262744    0.7408304906655434 O
   0.7768250346995955    0.6319818678389465    0.5153812575636160 O
   0.7743277221065104    0.6235171223324285    0.7636164263724691 O
   0.7160337997550704    0.8404748108030253    0.9938383892498986 O
   0.1312716447702757    0.0220928370624092    0.1061781265869909 Zr
   0.3570628357470734    0.2676330665829151    0.1548833492735653 Zr
   0.3706836459825245    0.4844490696521135    0.3958178191293304 Zr
   0.1329147265823454    0.2369629634378688    0.3619753445518080 Zr
   0.1387070228665664    0.0270699197881957    0.5954047871212005 Zr
   0.3699348827757496    0.2732688907056238    0.6391899735498644 Zr
   0.3512382499808283    0.4715308072765653    0.8820451297665776 Zr
   0.1372074667762546    0.2292774876482781    0.8590358584365035 Zr
   0.1331564640900688    0.5231253554159073    0.1042602913223297 Zr
   0.3637372995323478    0.7754929067064087    0.1399892391521459 Zr
   0.3664655965936849    0.9867659470450207    0.3986974231226090 Zr
   0.1347445098936807    0.7368845916428879    0.3645897968804946 Zr
   0.1396082093539720    0.5206803248767859    0.6069412599906771 Zr
   0.3622982992040450    0.7862437653554168    0.6465961629532748 Zr
   0.3504293963526505    0.9793370367088911    0.8836217842259065 Zr
   0.1479000896911268    0.7295925800397940    0.8776563471845645 Zr
   0.6204120686360606    0.0174245902297832    0.0833409662395903 Zr
   0.8340948546850820    0.2549799856746470    0.1380020272860321 Zr
   0.8688104772934324    0.4859961210829828    0.4058213543024216 Zr
   0.6442787144887124    0.2340316073283027    0.3501005419639286 Zr
   0.6453042259097285    0.0230798482163819    0.5931942396319382 Zr
   0.8601311824445450    0.2569875146608947    0.6438163472177448 Zr
   0.8649214238448103    0.4841111308193285    0.9019362556614341 Zr
   0.6354454982101059    0.2226288043606524    0.8332182604361036 Zr
   0.6252815353250932    0.5095494047124259    0.0949952842912505 Zr
   0.8575114330304470    0.7574165297850493    0.1503396573044276 Zr
   0.8630546440691297    0.9833578386937255    0.3884135304661356 Zr
   0.6314694273001890    0.7305365111786891    0.3534686332355900 Zr
   0.6427399471404598    0.5209837996976873    0.6106752415313927 Zr
   0.8721936459952405    0.7722437157703740    0.6608231173015356 Zr
   0.8754335409468580    0.9796721035416172    0.9031204096384134 Zr
   0.6392595275828733    0.7106603466913504    0.8614858977331334 Zr
