0,0,0,0,0,0,0,0,0,0,0,0,0,0,0,0,0,0,0,0,0,0,0,0,0,0,0,0,0,0,0,0,0,0,0,0,0,0,0,0,0,0,0,0,0,0,0,0,0,0,0,0,0,0,0,0,0,0,0,0,0,0,0,0,0,0,0,0,0,0,0,0,0,0,0,0,0,0,0,0,0,0,0,0,0,0,0,0,0,0,0,0,0,0,0,0
1.0
  10.3453294342762678   -0.0000000000000000   -0.0000000000000000
  -0.0817467389509036   10.0769017899633333   -0.0000000000000000
  -1.6599233445034549   -0.5249202583218757   10.9987360780040948
O Zr
64 32
direct
   0.0358745831692711    0.1756816051474923    0.1678052452309523 O
   0.4783441098245040    0.4019602617891500    0.0670874536825781 O
   0.4570473301017654    0.3399793320440274    0.3262584364194673 O
   0.0393446384887934    0.0753332903401984    0.4158490965290982 O
   0.2086656726140335    0.3708044467021471    0.2422982376520125 O
   0.2702683718636278    0.1287106409017161    0.0212983000990882 O
   0.2769610365883626    0.1138310384745972    0.2633717879359885 O
   0.2264128100933107    0.3675559140280534    0.4893105831008009 O
   0.0338628643703207    0.1661353859545301    0.6754241174362356 O
   0.4727680493427531    0.3964303754011049    0.5819900513115682 O
   0.4683896468625581    0.3483101073226594    0.8266738960109645 O
   0.0265738808033783    0.0785694576803924    0.9275035926265456 O
   0.2173365829792590    0.3720975333237362    0.7436034186197293 O
   0.2774602465574515    0.1305376409784244    0.5113452227795066 O
   0.2660036741485313    0.1167095700804240    0.7760996591209253 O
   0.2342192039737971    0.3801158206600974    0.0008994206179548 O
   0.0305216298886316    0.6559439463716171    0.1662694053507881 O
   0.4600821834535190    0.9174953988582114    0.0777531670580087 O
   0.4689350089887218    0.8318113956988058    0.3207250355842829 O
   0.0343175351989544    0.5795224310193626    0.4259376804730213 O
   0.2273344579077045    0.8775477449891471    0.2297707704118854 O
   0.2900721321366251    0.6323242669751996    0.0161801660061557 O
   0.2672870635581806    0.6109418478962376    0.2531623541334477 O
   0.2308990571163791    0.8586566025212641    0.4851588672239811 O
   0.0408397474499887    0.6645574944887037    0.6775261436541605 O
   0.4809021458033465    0.9036702036194413    0.5693084291405495 O
   0.4709840496569771    0.8481067794071806    0.8235555891294500 O
   0.0460614172686550    0.5833096699026366    0.9164310815183329 O
   0.2229993745666873    0.8681635210865741    0.7260630613430586 O
   0.2726837097778656    0.6189467155097417    0.5158461661923595 O
   0.2825385465509505    0.6219699884535081    0.7535816200259328 O
   0.2360076061892625    0.8580565489767238    0.9938768070052358 O
   0.5324943556447039    0.1717275782218024    0.1756205197034350 O
   0.9659358112576053    0.4202580605777326    0.0672969902041979 O
   0.9590386367055481    0.3338436408028143    0.3257750369940885 O
   0.5286364863953846    0.0961286921768222    0.4292015781286612 O
   0.7225752843032401    0.3880277087200135    0.2300847897206046 O
   0.7650509754701394    0.1362429423794870    0.0124710270368530 O
   0.7713764053674885    0.1298244783028513    0.2651122161601262 O
   0.7185174293561712    0.3780070062925402    0.4839104025819883 O
   0.5430933394307860    0.1579685230664727    0.6856763720589742 O
   0.9521571430747617    0.4174533374760820    0.5831671479350513 O
   0.9649815960250292    0.3340641077579480    0.8338059405971487 O
   0.5198210349008093    0.0975433231889122    0.9226220197513335 O
   0.7236714009152637    0.3819092714106436    0.7360574394989120 O
   0.7751648809480326    0.1242936333631935    0.5210950464992025 O
   0.7857510054130399    0.1251572887025627    0.7676239925317040 O
   0.7282022231433440    0.3826483149971222    0.9773860354735204 O
   0.5334325024234122    0.6567558398983138    0.1853094427164271 O
   0.9660330666772621    0.9151450294027242    0.0732763936132426 O
   0.9677034222339904    0.8368715916120707    0.3254819523089812 O
   0.5360906698261566    0.5817443545143286    0.4270624405374746 O
   0.7274523162961708    0.8789836558591489    0.2386242117536355 O
   0.7745644360262520    0.6339221731256038    0.9966974660864226 O
   0.7849558982651025    0.6315900161490631    0.2588013796414818 O
   0.7339927201443833    0.8700096921982354    0.4848001239491160 O
   0.5370035627494677    0.6640427520701903    0.6847152826551527 O
   0.9666720716521593    0.9113357438252507    0.5817664315081147 O
   0.9671694538599093    0.8274231447235199    0.8344387370794571 O
   0.5218727642120395    0.6045703528670763    0.9318370590777789 O
   0.7237584755395657    0.8831639010549915    0.7405964458580009 O
   0.7792071555670744    0.6256201544036336    0.5048726187370864 O
   0.7753863882904309    0.6240596317772227    0.7556969682745855 O
   0.7169279221755263    0.8780797413444167    0.9932582841266293 O
   0.1383106585239439    0.0262992346606734    0.1075849061481189 Zr
   0.3596934505921263    0.2728030505609965    0.1470057481726036 Zr
   0.3656129151449479    0.4835962999270838    0.4050201882749769 Zr
   0.1355950142769841    0.2348280966738087    0.3585044130466617 Zr
   0.1358908303638574    0.0143733143128511    0.6036983012238006 Zr
   0.3551345729889361    0.2661229017948716    0.6455437529316953 Zr
   0.3642594360385902    0.4767905808526641    0.8981189979960460 Zr
   0.1304956134512467    0.2283013162257242    0.8550060501775865 Zr
   0.1419653389823113    0.5260831579959284    0.1002473216540790 Zr
   0.3707175223426141    0.7693636511422746    0.1467535811526542 Zr
   0.3620489648515113    0.9768508547177817    0.3912423532469089 Zr
   0.1368048027147504    0.7231633626921619    0.3534344285771262 Zr
   0.1401138382685164    0.5123154758756242    0.6094048884675406 Zr
   0.3655564029847262    0.7659157396705502    0.6484774545289661 Zr
   0.3607301247549958    0.9777902356597448    0.8977678673231569 Zr
   0.1419815256854822    0.7273896183856399    0.8582204660022105 Zr
   0.6315206073109134    0.0277495238107189    0.1060671461544607 Zr
   0.8576773632691891    0.2799643924189448    0.1401125485756406 Zr
   0.8652190073274674    0.4780731233971631    0.3911157939504473 Zr
   0.6349870131082854    0.2301810366620849    0.3531327797261610 Zr
   0.6401145036043351    0.0257241993213904    0.6087958813186741 Zr
   0.8565014350158279    0.2647895559925383    0.6439051430885114 Zr
   0.8666989613816483    0.4835196157648586    0.8901210213852677 Zr
   0.6417255426173950    0.2300238341374767    0.8564134276153409 Zr
   0.6372360737978879    0.5248964706431015    0.0896095845477231 Zr
   0.8554681975293831    0.7743116964763808    0.1375632827417169 Zr
   0.8653747530702404    0.9814231476773023    0.3883257799813541 Zr
   0.6428479383023631    0.7277577023497057    0.3561083505615636 Zr
   0.6390008628120029    0.5156426098018866    0.6081649879823137 Zr
   0.8608934704374119    0.7638979877388489    0.6496107787592773 Zr
   0.8632076094993731    0.9750583625087381    0.8959998434554972 Zr
   0.6329852499582556    0.7363674162556546    0.8550479194157183 Zr
