1,1,1,1,1,1,1,1,1,1,1,1,1,1,1,1,1,1,1,1,1,1,1,1,1,1,1,1,1,1,1,1,1,1,1,1,1,1,1,1,1,1,1,1,1,1,1,1,1,1,1,1,1,1,1,1,1,1,1,1,1,1,1,1,1,1,1,1,1,1,1,1,1,1,1,1,1,1,1,1,1,1,1,1,1,1,1,1,1,1,1,1,1,1,1,1
1.0
  10.3289011782348332    0.0000000000000000    0.0000000000000000
  -0.2135280590973318    9.9844228051631276   -0.0000000000000000
   0.3465242447369814   -0.3544078769716862   10.2688725484797061
O Zr
64 32
direct
   0.1323034816142975    0.1302510775689977    0.1488428028962425 O
   0.3774233593052252    0.1355156847913507    0.1010857983580369 O
   0.3816749774163418    0.3868720520360431    0.1351265692459521 O
   0.1283259088684630    0.3778579169612801    0.0916216642730941 O
   0.1313785784947809    0.3801931749689729    0.3331666198745948 O
   0.3816407217460671    0.3810613115386949    0.3907943643232890 O
   0.3785244344339400    0.1070893504600535    0.3451777942092359 O
   0.1335817074922147    0.1243453999264138    0.3992956865169241 O
   0.1338968596676117    0.1260826518035552    0.6528316779520743 O
   0.3689719959647417    0.1094422256786309    0.5971775061039086 O
   0.3708002700444727    0.3628480607656837    0.6442641864202969 O
   0.1289934050822240    0.3682810101489387    0.5778311243797132 O
   0.1309479357811423    0.3602054804435633    0.8434367876911931 O
   0.3766286277442183    0.3693135739334236    0.8906260784446111 O
   0.3698646008700264    0.1039916590965665    0.8466071623303076 O
   0.1268098507547638    0.1093482672668403    0.9023658625670508 O
   0.1306259324782807    0.6243020210081754    0.1470111587492144 O
   0.3838878937455546    0.6405264854208682    0.1004356126372112 O
   0.3784079651605821    0.8957635307934899    0.1539014012725258 O
   0.1211596225457372    0.8653650485558106    0.1035570795021151 O
   0.0896737674458255    0.8892109103387968    0.3541221633078278 O
   0.3530656199258938    0.8707705934062381    0.4076416545962229 O
   0.3680784123208663    0.6331223668626870    0.3513334611143976 O
   0.1094529917413659    0.6261068054970764    0.3906083229744476 O
   0.1372911072722246    0.6189189870393609    0.6572592701230113 O
   0.3688829312178357    0.6017343851153987    0.6004965220172034 O
   0.3699458357487168    0.8535350973436654    0.6492738770126314 O
   0.1197394803042153    0.8707343802603932    0.6053470226018439 O
   0.1347757623045053    0.8691948325480904    0.8528836602219426 O
   0.3930243705019151    0.8546997901429301    0.9032692179603723 O
   0.3772814429597680    0.6153926104181676    0.8604087448439579 O
   0.1190338134890163    0.6170163292106214    0.8892652915097231 O
   0.6346619145850695    0.1397770902405180    0.1455774896360283 O
   0.8792248929411722    0.1287144660497415    0.1082675695848030 O
   0.8786983343528708    0.3936145467692301    0.1608223310206043 O
   0.6303006783252194    0.3943339158637740    0.0980486254889845 O
   0.6271100072788635    0.3736571929878849    0.3387958089629878 O
   0.8857315129213282    0.3610873192905206    0.3987318086352322 O
   0.8750868079183508    0.1187157251238943    0.3627788396157989 O
   0.6231852861438388    0.1355881110712835    0.3956208905038421 O
   0.6225040876657277    0.1238844164712445    0.6430865638971904 O
   0.8773241925821742    0.1258722241128688    0.6081040785849948 O
   0.8692369180896878    0.3665613754728015    0.6425255629428205 O
   0.6309241315342242    0.3719659415897332    0.5892851336630803 O
   0.6239672941702216    0.3740359628315429    0.8405598597070811 O
   0.8746228882622281    0.3888980302790722    0.8950651783248358 O
   0.8715927295047724    0.1459127702346577    0.8643357515440235 O
   0.6191264785226276    0.1308686583764428    0.8969102481326996 O
   0.6214392256681466    0.6331517288715259    0.1552017727239153 O
   0.8817157695752557    0.6405529112159500    0.0880797823256563 O
   0.8689354681791885    0.8731968736226112    0.1680501330942593 O
   0.6296791825850205    0.8863539873979561    0.0983222213376753 O
   0.6116391676338176    0.8803612024852574    0.3497732071698327 O
   0.8685410386003671    0.8764452899499209    0.4138328036244979 O
   0.8621616539774517    0.6373377718383367    0.3478475833774790 O
   0.6186390692633238    0.6266989392291256    0.3909161542757980 O
   0.6195081845725653    0.6269690696620245    0.6395891784412460 O
   0.8831828910194264    0.6173422474432982    0.6043391388296832 O
   0.8765774189575113    0.8725176326057156    0.6591081758437092 O
   0.6366908290211561    0.8858215563984329    0.5951895488667704 O
   0.6355016678831497    0.8783303305679744    0.8419043440538115 O
   0.8755409402421194    0.8898333848110658    0.9184143258449788 O
   0.8651350461943070    0.6264522984066370    0.8438107883306859 O
   0.6345513177036270    0.6238243990839324    0.8973245257644371 O
   0.9985325005350500    0.0097158054521462    0.0103777454337747 Zr
   0.9968295043305425    0.2565370546568420    0.2547367681457177 Zr
   0.2310204948764184    0.9943141593717674    0.2588277597323471 Zr
   0.2456887730905840    0.2415888586755304    0.9951592567494602 Zr
   0.0002472150803072    0.0028358593485358    0.5053699392411206 Zr
   0.0067976137996795    0.2526837810661547    0.7418006758714475 Zr
   0.2479672645633327    0.9841353314820235    0.7405789404530001 Zr
   0.2586824383801382    0.2438751800081916    0.4887393775417952 Zr
   0.0032820463108633    0.5059555296635948    0.0044689477139137 Zr
   0.0007346508020191    0.7435655856038074    0.2510159412857468 Zr
   0.2608258646370507    0.5018781261154330    0.2431504201763279 Zr
   0.2410515340073618    0.7444288285033911    0.9905561719729336 Zr
   0.0065537427833205    0.4972976535625193    0.4989093179716685 Zr
   0.0031478707669793    0.7427189811607889    0.7526476533438177 Zr
   0.2587480135249096    0.4868163970514177    0.7446306140328967 Zr
   0.2526093973235939    0.7388578777005340    0.5152205406603557 Zr
   0.4929824177847251    0.0025384848961808    0.9989472119330853 Zr
   0.4998570415335480    0.2479310514244005    0.2468405598017935 Zr
   0.7469627694024370    0.0041132533139965    0.2513170597469413 Zr
   0.7578776048434925    0.2572025934064745    0.0007836509083163 Zr
   0.5005313888820522    0.9989044192494764    0.4989658975520710 Zr
   0.5007682423817152    0.2498190282585625    0.7660723582906533 Zr
   0.7497090954705038    0.0090681873210070    0.7553740220924633 Zr
   0.7508992353440601    0.2447237419148552    0.5009385111768258 Zr
   0.4996661885131499    0.5077172498798708    0.0001052808859878 Zr
   0.4926075628704291    0.7550686398382628    0.2539206795673040 Zr
   0.7369513049462602    0.5096022905021196    0.2446780689348396 Zr
   0.7474991153394842    0.7639800079092706    0.9980457744913118 Zr
   0.5056384200320533    0.4975746351349628    0.4938219503124279 Zr
   0.5039158491549751    0.7510205982899075    0.7621664490673532 Zr
   0.7489398109714394    0.5025749843321943    0.7409289666884052 Zr
   0.7491717708060895    0.7460838667711291    0.5036418645068960 Zr
