2,2,2,2,2,2,2,2,2,2,2,2,2,2,2,2,2,2,2,2,2,2,2,2,2,2,2,2,2,2,2,2,2,2,2,2,2,2,2,2,2,2,2,2,2,2,2,2,2,2,2,2,2,2,2,2,2,2,2,2,2,2,2,2,2,2,2,2,2,2,2,2,2,2,2,2,2,2,2,2,2,2,2,2,2,2,2,2,2,2,2,2,2,2,2,2
1.0
   9.6881318521165873   -0.0000000000000000    0.0000000000000000
  -0.0710814609480261   10.3084402077817270   -0.0000000000000000
  -0.1189350940417116   -0.3264525532814264   10.3608396840640680
O Zr
64 32
direct
   0.1225047034311039    0.1315135222496257    0.1376696027440607 O
   0.1908115067791684    0.3239923613329182    0.3141763320502577 O
   0.1280943328487127    0.0998439742243736    0.3821342469075808 O
   0.1761217019607139    0.3969273592655746    0.0736989439354477 O
   0.4437121331753743    0.4171443367872616    0.1902628310359840 O
   0.4220896361241067    0.3471155011978155    0.4355529018310110 O
   0.3713311746016880    0.1111062733216411    0.3623069495297470 O
   0.3786479371637695    0.1424631310087760    0.1149414661952254 O
   0.1196305836156351    0.1463270634880509    0.6245168447835612 O
   0.1736866445020219    0.3395183974432656    0.8145810406835179 O
   0.1259223459864989    0.1008434323348166    0.8758748911497861 O
   0.1812459533923752    0.4066627514745187    0.5628647724150944 O
   0.4213090322617534    0.4086317040900233    0.6759700176880656 O
   0.4357680769272279    0.3367817079140094    0.9407064197210805 O
   0.3768560902428101    0.1013273019586783    0.8677371890936795 O
   0.3646949300941996    0.1453366631354504    0.6189985218345110 O
   0.1364794297833765    0.6467016942958089    0.1305013742158042 O
   0.1778637944738830    0.8398378420064285    0.3191326825552254 O
   0.1294906557385766    0.6003607019744478    0.3755687409182711 O
   0.1864905370457303    0.9022174273405994    0.0717920283472847 O
   0.4457172966548162    0.9168181873246791    0.1888612168094522 O
   0.4222545358319009    0.8378244940029358    0.4295124088778906 O
   0.3750293049117474    0.5999684855911528    0.3648789448035458 O
   0.3774655376915982    0.6381103338045186    0.1143690693064750 O
   0.1293679997627828    0.6396041990738452    0.6320034927740041 O
   0.1795618591916455    0.8417584230697698    0.8118441496240398 O
   0.1154512303386902    0.6086208370319147    0.8751357031270450 O
   0.1748746800159255    0.9059453677842969    0.5658670130296117 O
   0.4136287528238339    0.9011697375084295    0.6676134022456733 O
   0.4457716068740804    0.8421141525652345    0.9334765921796686 O
   0.3790399760166461    0.6091027358592711    0.8662626037351686 O
   0.3809999386890934    0.6400821589887558    0.6095814558750725 O
   0.6330029740714099    0.1498226459360489    0.1439290090738150 O
   0.6872377553092414    0.3472377237330105    0.3273897919120650 O
   0.6304410436600143    0.1116561619760136    0.3893906093929146 O
   0.6760733165653396    0.4168497057419733    0.0729466779572387 O
   0.9327174221583819    0.4073674497352532    0.1791617431215647 O
   0.9354091885053272    0.3354691666658350    0.4378112160327053 O
   0.8715999812552068    0.1051628769267225    0.3692411018562715 O
   0.8760748390950485    0.1426602260546533    0.1140051613593422 O
   0.6167530710276070    0.1392336183977494    0.6328810416385025 O
   0.6709878536333191    0.3473548861678399    0.8239971589688008 O
   0.6320949205432230    0.1128711424192832    0.8871010724291760 O
   0.6676980535790232    0.4027060718619722    0.5661143567177822 O
   0.9255431434158594    0.3999979641504353    0.6783174135209928 O
   0.9245160812236528    0.3504591054710985    0.9352070503130547 O
   0.8775707181167907    0.1120108279565745    0.8665488021795438 O
   0.8672616082200976    0.1472957851501529    0.6221296465202735 O
   0.6259806339459278    0.6458738940071230    0.1394720843256187 O
   0.6813682802623177    0.8383803252360963    0.3211047983028928 O
   0.6247797523340902    0.6084366607309803    0.3859344315162240 O
   0.6833468967567600    0.9074838021667171    0.0684952497423096 O
   0.9328037652935135    0.9152286176225438    0.1880424239163387 O
   0.9412824381321231    0.8343822322979220    0.4310542792944911 O
   0.8737661918531593    0.6057167561047939    0.3670055319018762 O
   0.8767513571286191    0.6530353415666498    0.1094563119477940 O
   0.6263422047812643    0.6441866516896458    0.6429046208528142 O
   0.6723223128413125    0.8433647439434417    0.8212460527487285 O
   0.6278300332184092    0.5998106946805366    0.8890276996918971 O
   0.6773392280404884    0.9164761449469756    0.5662328163347077 O
   0.9255136086026294    0.9141986882720406    0.6838660621298912 O
   0.9293798403316433    0.8421466732847022    0.9331136319066914 O
   0.8701801274702230    0.6098684508974163    0.8590346715613715 O
   0.8811047514508514    0.6435135779954380    0.6193140982645786 O
   0.5066925348069777    0.0143622492433185    0.0152592121701458 Zr
   0.2584475829658933    0.9993500396019815    0.2322506064639848 Zr
   0.2507811878697032    0.2387921685231595    0.4774032640914101 Zr
   0.5007927542487925    0.2400999409660407    0.2578331460247196 Zr
   0.5044704690473634    0.0081385647681899    0.5138793503184058 Zr
   0.2458114330723030    0.0069511382354773    0.7343620813091766 Zr
   0.2546759856781701    0.2370053933263597    0.9807903121240075 Zr
   0.4974963818026763    0.2505153076926684    0.7591931130348875 Zr
   0.4982246961854117    0.5146866105741946    0.0171368445236240 Zr
   0.2475836729913334    0.5019611330537715    0.2415141487565678 Zr
   0.2483428168043925    0.7453998125799599    0.4892918715649391 Zr
   0.4923995486686835    0.7436871078385311    0.2641446745778136 Zr
   0.4976720220545569    0.5089904625757707    0.5053711065671211 Zr
   0.2427416344318389    0.5027434915066650    0.7338598125202864 Zr
   0.2573862230115374    0.7429981040581193    0.9809419404425516 Zr
   0.5016825639987764    0.7426532364100535    0.7607672044596476 Zr
   0.0007688609151409    0.0088363514258134    0.0111332635980671 Zr
   0.7533006731971701    0.0056397178308802    0.2432559790087777 Zr
   0.7444244584779870    0.2401639458634251    0.4898642684536895 Zr
   0.0037443783283494    0.2356002639956331    0.2660381331485676 Zr
   0.9929621760747802    0.0062897464101337    0.5128928185978425 Zr
   0.7432412808241211    0.0115521792188002    0.7346596518723754 Zr
   0.7558943850183564    0.2535101110914226    0.9992321057842150 Zr
   0.0012208379146813    0.2381545037414267    0.7643636385264070 Zr
   0.9937867839709914    0.5136932534061788    0.0133861286564756 Zr
   0.7514014123651033    0.5133571571706222    0.2391108399843744 Zr
   0.7510302789976226    0.7393480164602954    0.4851344127379048 Zr
   0.9974263259020703    0.7427026182459625    0.2681438713575621 Zr
   0.0000324857828710    0.5078798298659121    0.5203605130472611 Zr
   0.7507387565482361    0.5061837823233595    0.7320241622467615 Zr
   0.7449548549920582    0.7393567758077155    0.9859456747904287 Zr
   0.9985998395506758    0.7436002757543326    0.7669574303733491 Zr
