2,2,2,2,2,2,2,2,2,2,2,2,2,2,2,2,2,2,2,2,2,2,2,2,2,2,2,2,2,2,2,2,2,2,2,2,2,2,2,2,2,2,2,2,2,2,2,2,2,2,2,2,2,2,2,2,2,2,2,2,2,2,2,2,2,2,2,2,2,2,2,2,2,2,2,2,2,2,2,2,2,2,2,2,2,2,2,2,2,2,2,2,2,2,2,2
1.0
   9.8193401739653616   -0.0000000000000000   -0.0000000000000000
   0.1128809559026015   10.0620454362033129    0.0000000000000000
   0.5192658479114453    0.4052428134959739   10.6586044075910511
O Zr
64 32
direct
   0.1274466866814345    0.1420781556315360    0.1341672447550009 O
   0.1688557066361413    0.3460640486378043    0.3251830985801029 O
   0.1110346935156012    0.1122097807436931    0.3830243046915638 O
   0.1759988282941684    0.4139287903581526    0.0863313971240601 O
   0.4256838796058531    0.4096467115855070    0.1916788363629441 O
   0.4229085090123604    0.3487648624848619    0.4345206677622383 O
   0.3746137078107887    0.1087792274695140    0.3745516064238916 O
   0.3758760773012084    0.1458760249443478    0.1331425119961586 O
   0.1251685614536235    0.1319425409388593    0.6208983072011500 O
   0.1761380941797970    0.3506642023264598    0.8252970764760842 O
   0.1279353292483648    0.1177989334236310    0.8773034447868564 O
   0.1885816203964780    0.4119791712615782    0.5657997959756330 O
   0.4380366934195368    0.4062406008433080    0.6868740969958416 O
   0.4321002633352369    0.3458557025952979    0.9447950835034287 O
   0.3745982496599763    0.1115270937427637    0.8915732026823345 O
   0.3681145344237310    0.1439067593957569    0.6307735199002006 O
   0.1128009895510319    0.6562469717881441    0.1252383751337379 O
   0.1854781388927987    0.8350148943988934    0.3245777034689564 O
   0.1340927749790775    0.6187042887838580    0.3746167737641398 O
   0.1648939147875084    0.9046484437225402    0.0659625431542684 O
   0.4127146215811825    0.8990601422783474    0.1680306486583244 O
   0.4308923236437476    0.8433383631928200    0.4266561979691479 O
   0.3877227536078845    0.6024206940312260    0.3646405044765519 O
   0.3692651643263131    0.6359199760834676    0.1205038264282751 O
   0.1252095970010496    0.6437080956472705    0.6430108124492238 O
   0.1730660123707928    0.8372343830162577    0.8213898696122718 O
   0.1203526207340945    0.6050006145890170    0.8940231167800378 O
   0.1934053519575921    0.9112472168150607    0.5688607719019714 O
   0.4451925651085173    0.9198240689626276    0.6907501368618654 O
   0.4360373265973264    0.8473472764712356    0.9379742355556220 O
   0.3825194233763100    0.6028615573899794    0.8649584844648194 O
   0.3759045723066501    0.6431453446714830    0.6183548921476095 O
   0.6154642745433936    0.1423099361201562    0.1364754907278487 O
   0.7082058592524506    0.3148070107651121    0.3063931830769658 O
   0.6182124474103666    0.0966809459570037    0.3796365476251431 O
   0.6670972301838329    0.4031224937249913    0.0811027100024789 O
   0.9389420345759840    0.4103194656435030    0.1921331188200875 O
   0.9419906602377781    0.3334535669377434    0.4356049011344582 O
   0.8739651329000654    0.0925042745576798    0.3684032098426913 O
   0.8781820637634785    0.1451197943663588    0.1148229346544068 O
   0.6149682806891373    0.1536651346417818    0.6191482336468004 O
   0.6672257294189700    0.3503155497693541    0.8204605267244783 O
   0.6324305772310961    0.1066783591820375    0.8643181445442254 O
   0.6761411934460752    0.4061630413333911    0.5583801640917743 O
   0.9387562755111288    0.4088491227623134    0.6703858162716938 O
   0.9193437256710160    0.3433473645383800    0.9278572426007844 O
   0.8745456691936941    0.1074522709939638    0.8688751358671614 O
   0.8797559437538026    0.1403524585391089    0.6227579374437250 O
   0.6270544440314356    0.6429117062729515    0.1315142730226171 O
   0.6779270839486425    0.8397408721475413    0.3128664718830370 O
   0.6259917272004171    0.6014562443189925    0.3877607423028561 O
   0.6904234606660362    0.9128000635232972    0.0655189330324186 O
   0.9169691268852965    0.9208200522636310    0.1862161135079208 O
   0.9140567442755378    0.8420625865292601    0.4224354323248239 O
   0.8742155847548421    0.6017381225048473    0.3470528791054018 O
   0.8668442344781546    0.6345440250732922    0.1063681810155703 O
   0.6152520245539468    0.6426336549200806    0.6354013452808733 O
   0.6746918332953354    0.8448252128867819    0.8108167052944614 O
   0.6358861510185759    0.6132386628866728    0.8858545327449654 O
   0.6712028184274600    0.9058190215730283    0.5789739870545321 O
   0.9390537162991045    0.9071291514697741    0.6791909624063190 O
   0.9155758145572824    0.8511765767273473    0.9231812500510933 O
   0.8723475188191395    0.6113932628825345    0.8455726183796834 O
   0.8702472214394583    0.6433643605124241    0.6071801105303115 O
   0.5048974268445416    0.0091592260240131    0.0162919044238406 Zr
   0.2496879740063781    0.0093427683383261    0.2254647950240545 Zr
   0.2409339454357969    0.2442542111950629    0.4887172252673269 Zr
   0.4898907514042690    0.2385491064958643    0.2746991903756879 Zr
   0.4950347068601270    0.0188448301837979    0.5224219608651831 Zr
   0.2577883768212437    0.9973656045427484    0.7372871711331378 Zr
   0.2568295059171898    0.2440399967408433    0.9975060146174372 Zr
   0.4973483169802047    0.2466397255063977    0.7716823027264357 Zr
   0.5031739353221687    0.5134718673133185    0.0181809071891239 Zr
   0.2449756701350619    0.4994127287838076    0.2453408328240051 Zr
   0.2727911413872524    0.7457418569881477    0.4799951911017855 Zr
   0.5041751588794798    0.7489613052289169    0.2543896481202469 Zr
   0.5023706515592813    0.5168325815505415    0.5201467707959533 Zr
   0.2484354140883458    0.5155027399092557    0.7356617655324138 Zr
   0.2405876219638568    0.7310491873014915    0.9892609297977575 Zr
   0.5033601353914343    0.7452468046614593    0.7643571162654019 Zr
   0.9977544722536666    0.0103814218763106    0.0031606642869687 Zr
   0.7507060578967651    0.0116875840063604    0.2375216968271156 Zr
   0.7613196655299869    0.2319108926636652    0.4817972096368126 Zr
   0.9896610366529039    0.2400507752643233    0.2613880534505802 Zr
   0.0120493183802668    0.9997816749935827    0.5175117436924052 Zr
   0.7480159212175461    0.0148549086455909    0.7385329061742604 Zr
   0.7455497666245287    0.2393552726616620    0.9886848127598059 Zr
   0.0031587199184286    0.2474725699255423    0.7523710485200775 Zr
   0.9902970315470336    0.5062100500590004    0.0221240033012254 Zr
   0.7421368552505214    0.4986997095544012    0.2363959074703539 Zr
   0.7483416042203377    0.7412201638568785    0.4777615570077155 Zr
   0.9901796503941509    0.7419096614708330    0.2618999476058896 Zr
   0.0165781356396686    0.5080700854080613    0.5020708626345822 Zr
   0.7423171187792748    0.5005400999859883    0.7275451264780187 Zr
   0.7579434170210516    0.7377295868353826    0.9898276022971795 Zr
   0.9947208163425690    0.7415383100335188    0.7585572232741608 Zr
