2,2,2,2,2,2,2,2,2,2,2,2,2,2,2,2,2,2,2,2,2,2,2,2,2,2,2,2,2,2,2,2,2,2,2,2,2,2,2,2,2,2,2,2,2,2,2,2,2,2,2,2,2,2,2,2,2,2,2,2,2,2,2,2,2,2,2,2,2,2,2,2,2,2,2,2,2,2,2,2,2,2,2,2,2,2,2,2,2,2,2,2,2,2,2,2
1.0
  10.5248667034752863    0.0000000000000000    0.0000000000000000
  -0.4269357011089555   10.3917217292804942   -0.0000000000000000
  -0.3247927517623929    0.2031815404379543   10.8289551613920700
O Zr
64 32
direct
   0.1306486162392819    0.1491602784727503    0.1264857830775174 O
   0.1845408850624018    0.3331831967753709    0.3107921059271757 O
   0.1154998465141208    0.1057769721854356    0.3818468952242334 O
   0.1843061735461182    0.4165906813866026    0.0557197257913878 O
   0.4320329867661506    0.4169984697498595    0.1858833014173491 O
   0.4267030589642902    0.3483925752666177    0.4293237977912497 O
   0.3672678082726664    0.1182311521609477    0.3707295758701727 O
   0.3739003123280628    0.1425741333389364    0.1271896147294549 O
   0.1238306888461461    0.1558783111911620    0.6321381459871166 O
   0.1813813394566170    0.3461061556889523    0.8100995638412344 O
   0.1185056647423869    0.1180340281415346    0.8764965600873219 O
   0.1845998593630636    0.4254246364357789    0.5495956494786081 O
   0.4237171545949395    0.4013220346256353    0.6861238335984454 O
   0.4449578833311043    0.3389555404343343    0.9376948643949010 O
   0.3798029077704103    0.1065028568075796    0.8754033949090040 O
   0.3812074617955662    0.1429976010747145    0.6294544917871611 O
   0.1300213099362992    0.6498816509152265    0.1383325107338824 O
   0.1780152019889734    0.8391017740965747    0.3152301291975410 O
   0.1236538374522341    0.6121555756674245    0.3827032395217019 O
   0.1727861607322848    0.9155507601948065    0.0553178881316001 O
   0.4170253839146274    0.9026690378232533    0.1765383495275500 O
   0.4165003349918016    0.8497020366837339    0.4177896736916960 O
   0.3715219402607546    0.6104317169724804    0.3592248175584775 O
   0.3716739867090606    0.6506992595170369    0.1173426025744713 O
   0.1252902372438900    0.6552649235323137    0.6300484385441788 O
   0.1747653493155586    0.8480933391533603    0.8109360151853394 O
   0.1232623791453605    0.6196222573979497    0.8903515287951905 O
   0.1795288954826147    0.9140346353288639    0.5553399767265199 O
   0.4136606908138126    0.9028629844330636    0.6832166204896275 O
   0.4354147900223595    0.8390001771019859    0.9316616156717986 O
   0.3655570195371634    0.6033154942801743    0.8727746831472738 O
   0.3873511528093524    0.6356926692602227    0.6147024455814896 O
   0.6361801217437698    0.1511176039559501    0.1209470163538505 O
   0.6698192554371628    0.3623765796707481    0.3343709399323556 O
   0.6220796918954677    0.1142357253985449    0.3838930276229525 O
   0.6953375351271360    0.4122002434112684    0.0694229396923053 O
   0.9464753699153574    0.4150598601966070    0.1928373097198749 O
   0.9303607123639753    0.3449202210146853    0.4289467789524836 O
   0.8649387498637074    0.0988141397227548    0.3754868336879600 O
   0.8745219049752432    0.1326239937947857    0.1152983647444983 O
   0.6325081948318008    0.1359484750756029    0.6314561018572884 O
   0.6929034962349598    0.3350950958587525    0.8219936556700754 O
   0.6308287940433152    0.1046863968715947    0.8752527768322189 O
   0.6706419170038482    0.3990692144551993    0.5785105315455635 O
   0.9309468069360294    0.4102033838072285    0.6742032178256301 O
   0.9414204795432534    0.3519810566110879    0.9335391316091153 O
   0.8714773111149070    0.1047967250563357    0.8711614593191539 O
   0.8696278948685858    0.1380683367745667    0.6237584759960982 O
   0.6250134869388698    0.6406565181344688    0.1315234368203728 O
   0.6782952066692290    0.8431760016152157    0.3223593849428455 O
   0.6275735725064367    0.6156968856331377    0.3777868380677729 O
   0.6754151153320725    0.9057316281797860    0.0713168436280349 O
   0.9362500710517195    0.9149981102141453    0.1850923196862086 O
   0.9250639837092763    0.8376005078842129    0.4385446555390035 O
   0.8701087027679058    0.6078587259005692    0.3644140366624909 O
   0.8620703629655415    0.6376225211590950    0.1160107219465580 O
   0.6296202849591959    0.6363300013733961    0.6373680982822297 O
   0.6957922376982735    0.8299385894930573    0.8138015478186846 O
   0.6244150162120290    0.6025392599087092    0.8868996276613424 O
   0.6680151058742626    0.8998989476619768    0.5738934716856930 O
   0.9279273703990574    0.9141774384704392    0.6978834111756075 O
   0.9291731148060569    0.8371817443923688    0.9435718113349802 O
   0.8738222552510715    0.6022506389518882    0.8727794195691386 O
   0.8701539496302588    0.6420660392499995    0.6189642741247031 O
   0.4999324932004724    0.0136581021096706    0.0178067870654302 Zr
   0.2491177332326995    0.0035400580883483    0.2309332636186227 Zr
   0.2467717949148814    0.2413396337403145    0.4805273137201791 Zr
   0.4955428851171012    0.2507322757880093    0.2676594455607109 Zr
   0.4984122070398230    0.0016363586125750    0.5190144957140533 Zr
   0.2467876324259449    0.0105928564125847    0.7315953369670770 Zr
   0.2518379768432124    0.2458826420871844    0.9894762232649765 Zr
   0.5081388402520952    0.2392295619762257    0.7648582503628415 Zr
   0.4962966153512476    0.5004019929126563    0.0273420482112272 Zr
   0.2435775646728602    0.5177420477125056    0.2343179076266313 Zr
   0.2507128021966550    0.7402386389980757    0.4779033383710792 Zr
   0.5045960106326846    0.7388300444261406    0.2571237582852883 Zr
   0.5022148078072451    0.5070313742031145    0.5128306289141661 Zr
   0.2553077569136773    0.5073849648565273    0.7301829372413372 Zr
   0.2484612316520076    0.7430430079577028    0.9848629525333635 Zr
   0.5040612434932203    0.7349862082446986    0.7688614705123306 Zr
   0.0004922469270339    0.0046924752004175    0.0094889746950241 Zr
   0.7488627680591853    0.0112317810446984    0.2306756025092714 Zr
   0.7538522539353527    0.2418183739779766    0.4867983305992692 Zr
   0.9995892465252494    0.2352470550448551    0.2586583575843276 Zr
   0.9941219291909267    0.0059655487574461    0.5251784695605771 Zr
   0.7491319194687265    0.0016863070442190    0.7311870577717062 Zr
   0.7608688500325428    0.2366437190379211    0.9797286758768099 Zr
   0.9979109246400965    0.2376603530876400    0.7660054107042463 Zr
   0.0010156581175858    0.5147484820739574    0.0198317003071230 Zr
   0.7534977599760528    0.5143603200158096    0.2313519629328618 Zr
   0.7402522515526317    0.7363988543543298    0.4826880674172137 Zr
   0.0037167908822823    0.7532346472473171    0.2731906340186286 Zr
   0.9992261143463386    0.5178503439222826    0.5119989139919258 Zr
   0.7444653673610346    0.5052010746985056    0.7343926651902097 Zr
   0.7449228516678922    0.7312261674778976    0.9850145179037559 Zr
   0.0019157393452408    0.7394288503053236    0.7750330226153691 Zr
