1,1,1,1,1,1,1,1,1,1,1,1,1,1,1,1,1,1,1,1,1,1,1,1,1,1,1,1,1,1,1,1,1,1,1,1,1,1,1,1,1,1,1,1,1,1,1,1,1,1,1,1,1,1,1,1,1,1,1,1,1,1,1,1,1,1,1,1,1,1,1,1,1,1,1,1,1,1,1,1,1,1,1,1,1,1,1,1,1,1,1,1,1,1,1,1
1.0
  10.5576911689884199   -0.0000000000000000    0.0000000000000000
   0.3477020806272991   10.6826132078444385    0.0000000000000000
   0.3230614218195235   -0.0695962065905277   11.0626716123900835
O Zr
64 32
direct
   0.1513297740312896    0.1265171896372828    0.1036360096611691 O
   0.3891491493383099    0.1264872542392228    0.1510513442456758 O
   0.3496151074868977    0.3621667312233548    0.1121289721201443 O
   0.1066835382982740    0.3929297007223453    0.1680700064546433 O
   0.1198184195244877    0.3999712794583796    0.3926677147981881 O
   0.3658043652156970    0.3712767495635904    0.3502871111495268 O
   0.3776645777793400    0.1330624201064330    0.4073597583202939 O
   0.1233643159968680    0.1278024805373192    0.3557199881439670 O
   0.1258508855594727    0.1135358480459122    0.5902145779403949 O
   0.3532537071380475    0.1366092822418860    0.6968293484248621 O
   0.3679751645839083    0.3698379190246474    0.5975833076520045 O
   0.1223349244828304    0.3640487988261628    0.6517133829883567 O
   0.1071132561450364    0.3452464703279868    0.9367558690518768 O
   0.3723882220145825    0.3692517645709003    0.8629976096015891 O
   0.4026925039265015    0.0950465858947063    0.9025160654066374 O
   0.1402420879498503    0.1202964202754845    0.8311203788967531 O
   0.1750569587558499    0.6159880265897101    0.1014287023256923 O
   0.3990210718974749    0.5961930015799529    0.1810542229199611 O
   0.4034447515742082    0.8432189610337427    0.0798647601100686 O
   0.1480378456380264    0.8712684313188300    0.1756904159500840 O
   0.1347223863531977    0.9018517884132606    0.4228863190027627 O
   0.4015897223944378    0.8895010215575392    0.3297137086320830 O
   0.3505537271443713    0.6325606505862806    0.4143150141116548 O
   0.0917400760579854    0.6461078678104852    0.3846811396203579 O
   0.0926657558966465    0.6173834025219987    0.6293403754480447 O
   0.3562105521787987    0.6376853980228281    0.6410482158990745 O
   0.3395751604158507    0.9094264104020077    0.5478850671759666 O
   0.1109845794001592    0.8645841460830780    0.6611797595625932 O
   0.1201921292001128    0.8565054505753538    0.9011573730738410 O
   0.3665952391925305    0.8599036013594760    0.8360489501687173 O
   0.3924169362848003    0.6066114866266334    0.9081268213320401 O
   0.1546651570455717    0.5960355993175169    0.8590341261921304 O
   0.6400029774154073    0.1400788917256133    0.0778399679183784 O
   0.9464960928288886    0.0927153907252341    0.1771986022801666 O
   0.8395098683451777    0.3941753996484733    0.0904835651343841 O
   0.5962432158072775    0.3757409868733753    0.1602660410451206 O
   0.6003733354183612    0.3640806655460092    0.3983617332149917 O
   0.8629492869524539    0.3811573630572676    0.3603561945592922 O
   0.8727632700298499    0.1470316299156318    0.3932742062891300 O
   0.6290475864820734    0.1227829898330136    0.3489870810298681 O
   0.6225042873283292    0.1268030244230073    0.5995087525577489 O
   0.8845018096684583    0.1319354971314531    0.6341979843767788 O
   0.8307146545394801    0.3880067758219898    0.5866229372145236 O
   0.5853863219986225    0.3875567791588514    0.6375738995814001 O
   0.6258840906091514    0.4134895269366057    0.8963782958082023 O
   0.8649588214222615    0.3483636146114651    0.8259193122271470 O
   0.8763149604557258    0.1202066140760508    0.9207231103282650 O
   0.6428072484849726    0.1547221308734477    0.8443496519898899 O
   0.6283880420209926    0.6467123697680626    0.0928131169373262 O
   0.9117526807219566    0.6220272522308659    0.1522709503835719 O
   0.8701144699143244    0.8801650392242929    0.0666098459593340 O
   0.6452300846173477    0.8782327574040686    0.1694589760578619 O
   0.6254437505302325    0.8926558265051218    0.4052611652938139 O
   0.8653750200533470    0.8769841615093065    0.3517801588489181 O
   0.8443256051903402    0.6157272989125759    0.4156803295914240 O
   0.6182862928239892    0.6500757568676835    0.3615928316646256 O
   0.6099922555626967    0.6334654722042666    0.6033359882638673 O
   0.8499312503601634    0.6425716279195914    0.6479807637398786 O
   0.8662788760161597    0.8949772685392495    0.5885890672021152 O
   0.6134512428175934    0.8865856998088717    0.6631714359923014 O
   0.6158373839353853    0.8978916246272564    0.8991250115713249 O
   0.8449059656980873    0.8611425406841229    0.8205801055355331 O
   0.8989345353532037    0.5939951637913560    0.8815074271822414 O
   0.6732119588382753    0.6749617312761179    0.8231082572768065 O
   0.0306072564713973    0.9853638306043964    0.0151441795228164 Zr
   0.0093980551372950    0.2537542297479964    0.2611167769424468 Zr
   0.2683540142861757    0.0130178910849871    0.2491023791679400 Zr
   0.2528774122161744    0.2373563898674307    0.9929722372755774 Zr
   0.9949141890358701    0.0091081674713610    0.4965651006261017 Zr
   0.9970386368109903    0.2378932957667916    0.7570309618447252 Zr
   0.2338780894616070    0.9801782467092889    0.7534525674218387 Zr
   0.2388966145102760    0.2613867912222408    0.4974705801206553 Zr
   0.0379233717923595    0.5032126819053031    0.0204641696176218 Zr
   0.0080045226464139    0.7593187242941892    0.2422616092841768 Zr
   0.2431426130982551    0.5074750966764191    0.2589831758172390 Zr
   0.2608122246645306    0.7504240477072933    0.9811924883174643 Zr
   0.0053325757098754    0.5032542052041740    0.5162245081652732 Zr
   0.9784593753225896    0.7409499762671511    0.7407399001903094 Zr
   0.2539647432149209    0.4813859122921607    0.7602043978310814 Zr
   0.2258756809396520    0.7475695624165878    0.5105863134610082 Zr
   0.5128557435013872    0.9978884159271145    0.0155082825750564 Zr
   0.4924861519363309    0.2422976622736207    0.2731803752734803 Zr
   0.7723425548399047    0.9890043615748789    0.2476282547546531 Zr
   0.7403725127410933    0.2626527689692427    0.9855353837213368 Zr
   0.4928946253063668    0.9985354068390084    0.4944068992316700 Zr
   0.4813994315070668    0.2362874063732039    0.7714448329860696 Zr
   0.7558278703278395    0.0090933224175632    0.7395240787168658 Zr
   0.7329707435426209    0.2556411256425931    0.4745743435717630 Zr
   0.4970933066399968    0.4961488930399375    0.0375309916128205 Zr
   0.5158444552634502    0.7615194590634684    0.2498460645170364 Zr
   0.7621104418032371    0.5187066658161730    0.2370671657705828 Zr
   0.7560171393092038    0.7547598524918526    0.9570274450741493 Zr
   0.4736413344772503    0.4903443223160120    0.4871242704939818 Zr
   0.5113551108510103    0.7485052850974548    0.7296820748036286 Zr
   0.7321615220707849    0.4850013361520756    0.7360034003251852 Zr
   0.7461094873981918    0.7581193769600646    0.4965518543231168 Zr
