0,0,0,0,0,0,0,0,0,0,0,0,0,0,0,0,0,0,0,0,0,0,0,0,0,0,0,0,0,0,0,0,0,0,0,0,0,0,0,0,0,0,0,0,0,0,0,0,0,0,0,0,0,0,0,0,0,0,0,0,0,0,0,0,0,0,0,0,0,0,0,0,0,0,0,0,0,0,0,0,0,0,0,0,0,0,0,0,0,0,0,0,0,0,0,0
1.0
  10.7277569506314663   -0.0000000000000000   -0.0000000000000000
  -0.2723574303222254   10.0008252949553853    0.0000000000000000
  -1.8023391719040951    0.1431465723868783   10.5291878893336683
O Zr
64 32
direct
   0.0180555684921858    0.1394007226452856    0.1840518427696744 O
   0.4473779833074827    0.4366398890408109    0.0754475102970428 O
   0.4715748506925015    0.3310108637247480    0.3273628594463359 O
   0.0530778721309107    0.0881142117007788    0.4210721337769359 O
   0.2184595345759913    0.3731951584890100    0.2358131372995310 O
   0.2841287405875061    0.1203394455677659    0.0045256947070222 O
   0.2561074706693569    0.1206560559627609    0.2357867092119212 O
   0.2325060009381807    0.3786526470354257    0.4875038477183865 O
   0.0218680900530070    0.1521136284596067    0.6617904691261970 O
   0.4738198403415699    0.4326798821096952    0.5955805623387782 O
   0.4550745038798939    0.3209639505693838    0.8484378839938568 O
   0.0364016871979756    0.0871379487671938    0.9114783081629808 O
   0.2299906080906047    0.3865384327572751    0.7307621109216362 O
   0.2857920221534860    0.1293195813369900    0.5149210994223323 O
   0.2719584922750362    0.1402706881486261    0.7485095146591363 O
   0.2194389496538638    0.3642502016485342    0.9620956440963534 O
   0.0373417546616348    0.6710466284775908    0.1760120414108483 O
   0.4768662869087959    0.8942769257710550    0.0720833093090555 O
   0.4640217717414033    0.8450511396826709    0.3122667590660758 O
   0.0439790157329472    0.5622990382700936    0.4136128064550668 O
   0.2155784825452264    0.8556780298471972    0.2535718673616492 O
   0.2850175621376427    0.6238973502305182    0.0062396391621574 O
   0.2813597897679586    0.6162739803394313    0.2677023987344174 O
   0.2296044607671810    0.8760247641580871    0.4910197270425176 O
   0.0573009180760072    0.6768787251201943    0.6431152507934330 O
   0.4840629726314180    0.9084549866123452    0.5601320040147212 O
   0.4589221786923918    0.8200151486632929    0.8234661741180782 O
   0.0227194081677147    0.5819735697304917    0.9214520791131966 O
   0.2329529699106072    0.8762234775840577    0.7420856019974086 O
   0.2783762238101684    0.6353276511549755    0.4980146751405196 O
   0.2839679070767952    0.6134254375344637    0.7588192998620358 O
   0.1914426963773459    0.8552016880681744    0.9815297260455691 O
   0.5160133869736157    0.1431753270967146    0.1751125426176323 O
   0.9744828473123696    0.4314181944245385    0.0977757508385721 O
   0.9595999795359847    0.3236527620033792    0.3329608944153681 O
   0.5191011581211243    0.0837936682404176    0.4224690469059057 O
   0.7009777352597918    0.3661460609077161    0.2460304241910472 O
   0.7593343267331842    0.1266640472791019    0.0236597876795762 O
   0.7603801393888393    0.1201816157544475    0.2760583932635992 O
   0.7211726852920718    0.3830642754071417    0.4852697305721030 O
   0.5481700191318819    0.1844925086939621    0.6614195320566859 O
   0.9582123302942908    0.4234268719049285    0.5601348355911270 O
   0.9560240439748285    0.3238590816916665    0.8456525524746320 O
   0.5304581770702542    0.0660099568988170    0.9080520955548324 O
   0.7231940464853375    0.3842993411952447    0.7380383293731667 O
   0.7809409336944002    0.1284762377285056    0.5138904040625323 O
   0.7729066303621502    0.1441565340888881    0.7662399289192064 O
   0.7161843401999013    0.3712650710693736    0.9834835167097892 O
   0.5438437615545655    0.6671446192411985    0.1947127439692543 O
   0.9682598299347847    0.9079463182593389    0.0631133336952974 O
   0.9686586856941189    0.8596694125851073    0.3182631030541966 O
   0.5431506551691110    0.5922771940129130    0.4246097218883356 O
   0.7300616242769605    0.8705016716467934    0.2480144183812508 O
   0.7701483072987028    0.6234609412961468    0.0255573242711912 O
   0.7686337031447096    0.6103762797302257    0.2665206857352026 O
   0.7453218481834446    0.8924409657710199    0.4864863663976426 O
   0.5537147650345252    0.6795409146646774    0.6720691069316478 O
   0.9812780001967024    0.9126022975943258    0.5835680532992036 O
   0.9701425464180622    0.8423680329477724    0.8079925296535279 O
   0.5420253143279089    0.5779755315084379    0.9127185404902269 O
   0.7355074521725403    0.8903929813952403    0.7435136625143296 O
   0.7757372362814023    0.6468159497874089    0.5196290742083286 O
   0.7813746335635773    0.6372976714149767    0.7676387297626144 O
   0.7187517250151061    0.8775745387777997    0.9725064223398535 O
   0.1380972687969677    0.0243115117302288    0.0914186634825941 Zr
   0.3439195591614650    0.2599855484626904    0.1220156858822379 Zr
   0.3807672423106261    0.4868468821262777    0.4006356722699680 Zr
   0.1572774291474647    0.2269049911274056    0.3500239994989046 Zr
   0.1398203001437869    0.0246315449480650    0.6105331959563709 Zr
   0.3685784650844744    0.2764274211932246    0.6443922936709394 Zr
   0.3498948401819291    0.4840772542314593    0.8916223206834726 Zr
   0.1291935107075826    0.2397395970391857    0.8236964760108251 Zr
   0.1433673902773970    0.5170960107332905    0.1158201873893215 Zr
   0.3576062823595134    0.7701314214455373    0.1420000383424271 Zr
   0.3592310562552384    0.9764558644012480    0.3975209335413313 Zr
   0.1229862729588518    0.7320716188997478    0.3681536666210363 Zr
   0.1310486206245013    0.5106459057968115    0.5812763606868565 Zr
   0.3733789624383925    0.7649059236949174    0.6539205626081508 Zr
   0.3660054094565777    0.9566415679963436    0.9059784346486461 Zr
   0.1184361595406367    0.7108225924912004    0.8406095073169146 Zr
   0.6323767115659935    0.0172714465843050    0.1236023149153206 Zr
   0.8779579555548905    0.2702967790045406    0.1433507023204540 Zr
   0.8590510573794262    0.4628786192624674    0.3967186523503424 Zr
   0.6423941147257369    0.2291383779964255    0.3680989227313785 Zr
   0.6439367779073575    0.0169323977313196    0.6065076321193975 Zr
   0.8444881868640693    0.2831646622866954    0.6534571272367540 Zr
   0.8510842094032087    0.4718083635923609    0.9046966724707984 Zr
   0.6337379890398299    0.2224629377364652    0.8522586301637254 Zr
   0.6227457221235750    0.5191981896866655    0.0947898490358463 Zr
   0.8687209736945247    0.7692338832559003    0.1602958248669651 Zr
   0.8803855361081210    0.9929614395292028    0.3982184462438484 Zr
   0.6470473651945382    0.7321172564351580    0.3563667401833645 Zr
   0.6407561816476219    0.5374864810115256    0.6145502650641268 Zr
   0.8586376865705726    0.7910800007498995    0.6303061237346760 Zr
   0.8703692448629181    0.9859731919948131    0.9131583793504197 Zr
   0.6444366961494784    0.7352824096317702    0.8598897400503099 Zr
