1,1,1,1,1,1,1,1,1,1,1,1,1,1,1,1,1,1,1,1,1,1,1,1,1,1,1,1,1,1,1,1,1,1,1,1,1,1,1,1,1,1,1,1,1,1,1,1,1,1,1,1,1,1,1,1,1,1,1,1,1,1,1,1,1,1,1,1,1,1,1,1,1,1,1,1,1,1,1,1,1,1,1,1,1,1,1,1,1,1,1,1,1,1,1,1
1.0
   9.7603392831923550    0.0000000000000000   -0.0000000000000001
  -0.0644045932563498   10.3342270596034940    0.0000000000000000
   0.3346879430498729    0.2082010216055264   10.9243706127161033
O Zr
64 32
direct
   0.1283760475123059    0.1410802078185719    0.1443205151210089 O
   0.3784208969677034    0.1197651341386055    0.0888584572982234 O
   0.3703716288263098    0.3656883113341298    0.1444645746605277 O
   0.1182438891119438    0.3771113716076359    0.0971475470783334 O
   0.1380092924372408    0.3705451213268451    0.3415226564775423 O
   0.3882031298048347    0.3743423527933400    0.3913835834188128 O
   0.3752990120355893    0.1168657508947673    0.3465436115828326 O
   0.1256815226501216    0.1328339227578628    0.3985683127897331 O
   0.1271714018048420    0.1213295072422091    0.6422402195631487 O
   0.3691875669758508    0.1237721249019562    0.6021561332735197 O
   0.3821377533732051    0.3821367731874138    0.6390324938421621 O
   0.1420966582660554    0.3889274855265768    0.5851503849896091 O
   0.1126186151320087    0.3802450187392620    0.8521637785305267 O
   0.3665802784569537    0.3628212741555729    0.8884014751479591 O
   0.4033165815326435    0.1111973488408802    0.8352607927250963 O
   0.1289073070529626    0.1272449155750954    0.8915534978429708 O
   0.1466290274704185    0.6345085786384587    0.1553679608987565 O
   0.3869769200591222    0.6271621021652951    0.1058210837569322 O
   0.3689552634432368    0.8735175403605226    0.1440439208065976 O
   0.1291072645199376    0.8858551119749972    0.0975091365227086 O
   0.1293405482264726    0.8774804228602686    0.3557874319437470 O
   0.3763458481733160    0.8747114040417179    0.3996458781358133 O
   0.3941518643834108    0.6225581795540590    0.3564914028884024 O
   0.1326800339275035    0.6252027150520776    0.3916592173392233 O
   0.1232781123443095    0.6263377677129280    0.6542999236935312 O
   0.3643552615755818    0.6216142627013982    0.6084265647636656 O
   0.3586858793280000    0.8717277250159449    0.6482820765853896 O
   0.1133792376443301    0.8690479029085808    0.5937411354526847 O
   0.1213481307314104    0.8879134976414440    0.8597633993639102 O
   0.3740326147637967    0.8612103544359422    0.9006465358880525 O
   0.3779582502800005    0.6179807219077610    0.8550488108785975 O
   0.1279055593552002    0.6315543051053580    0.8969029086943361 O
   0.6414727834807028    0.1237623230625886    0.1510039172947701 O
   0.8873528325958031    0.1129126702275512    0.1026200808122596 O
   0.8707240169569478    0.3609108962199890    0.1559134663572644 O
   0.6170769925795918    0.3639210402152540    0.0936136705678585 O
   0.6267621872369155    0.3811693319263758    0.3479880485540236 O
   0.8847259404152275    0.3647110682394040    0.4075758755124276 O
   0.8706965718117191    0.1365184331076268    0.3633303893571547 O
   0.6160634826845950    0.1376583866924712    0.3928366639634734 O
   0.6321718208100664    0.1288818222717952    0.6467704118327513 O
   0.8620984008202330    0.1291425511225111    0.6082191190370110 O
   0.8971056599328731    0.3867328543355211    0.6563484503312076 O
   0.6294919987098861    0.3718703296272007    0.6028380150829238 O
   0.6152822763079995    0.3736268187270029    0.8504725195504905 O
   0.8661122528724176    0.3687327617620831    0.8920865181336978 O
   0.8830508065467335    0.1205316377489160    0.8628049764192806 O
   0.6360455065954471    0.1081862246607354    0.8956918481793624 O
   0.6276933617095989    0.6211467151032994    0.1533962660191515 O
   0.8912696464682907    0.6262642539465054    0.1060362126630556 O
   0.8812217838624709    0.8785047147743807    0.1542663856385770 O
   0.6218387247521143    0.8538413337460780    0.0939979253820548 O
   0.6266808319893360    0.8862217006635699    0.3504966053095131 O
   0.8733430676640601    0.8844191429323272    0.4000165913460816 O
   0.8789252135613013    0.6249439465642082    0.3494776241714105 O
   0.6328403060578484    0.6365042325504804    0.3956074090775917 O
   0.6195725401544185    0.6232041205836800    0.6500463257291860 O
   0.8742291536917230    0.6498366905687870    0.6019832618224357 O
   0.8680745805409925    0.8858717750964236    0.6564377672387524 O
   0.6064586630859978    0.8801053546762971    0.5945584332281380 O
   0.6268788290950794    0.8654163224845208    0.8427979877561911 O
   0.8666523340616816    0.8613691441846434    0.9064790263956368 O
   0.8733969777706430    0.6141344812535064    0.8420181454566189 O
   0.6011637110000680    0.6287686231761845    0.8984616328994798 O
   0.9964554235097234    0.9948505538273571    0.9943554386973720 Zr
   0.0034589415549424    0.2570016273376431    0.2626711880828948 Zr
   0.2496914176679668    0.0051620858361981    0.2460803312706012 Zr
   0.2469812098792765    0.2528525099458782    0.0010345190767187 Zr
   0.9987026755777835    0.9981179816094864    0.4907654567998064 Zr
   0.9971931927546135    0.2404727904301207    0.7490546047087550 Zr
   0.2512783350033657    0.0040838838139760    0.7584607321501281 Zr
   0.2577632300417081    0.2573799782337778    0.5011233375886812 Zr
   0.0052306986902632    0.4938394822805354    0.9905051134025639 Zr
   0.0001751616515641    0.7603131899191744    0.2496597305958570 Zr
   0.2520918874278830    0.4989295759783867    0.2470407281915724 Zr
   0.2531132387983080    0.7451223036889169    0.0102019302668358 Zr
   0.9972996948924039    0.5120493341525598    0.5120449713770039 Zr
   0.9917139661388902    0.7583469415151630    0.7520174292088982 Zr
   0.2510244674311598    0.5012398688456596    0.7523074690759375 Zr
   0.2517556844401114    0.7484911948934563    0.5044078950585855 Zr
   0.5047734309111106    0.9980165470213750    0.9855878811606009 Zr
   0.4960350936592077    0.2509617356781536    0.2461763709636138 Zr
   0.7486705685036258    0.0011124622725010    0.2585145902055631 Zr
   0.7595809927255174    0.2372548475055253    0.0220637562240368 Zr
   0.4886660729654113    0.0003101767587234    0.4888725144662748 Zr
   0.5003224169487652    0.2537405563385756    0.7404043096345471 Zr
   0.7393088344512968    0.0004725003615798    0.7514709633563894 Zr
   0.7554887259840171    0.2520615017369279    0.5017351104254816 Zr
   0.4982816745824820    0.4848717820541288    0.9887726129802540 Zr
   0.5051811873142449    0.7484137603916831    0.2386747106112445 Zr
   0.7511788584697008    0.4982483483401317    0.2588392043664808 Zr
   0.7394862476948122    0.7326161404831568    0.9998403615477790 Zr
   0.5001450037109918    0.5088176686561492    0.4974805520671357 Zr
   0.4962546548014232    0.7463485134349739    0.7587229205087568 Zr
   0.7506887666450185    0.4918173634084098    0.7465758202496778 Zr
   0.7468846738903526    0.7677037746455162    0.5053462028534591 Zr
