0,0,0,0,0,0,0,0,0,0,0,0,0,0,0,0,0,0,0,0,0,0,0,0,0,0,0,0,0,0,0,0,0,0,0,0,0,0,0,0,0,0,0,0,0,0,0,0,0,0,0,0,0,0,0,0,0,0,0,0,0,0,0,0,0,0,0,0,0,0,0,0,0,0,0,0,0,0,0,0,0,0,0,0,0,0,0,0,0,0,0,0,0,0,0,0
1.0
  10.3056719593200938    0.0000000000000000   -0.0000000000000000
  -0.0914601178693327   10.1043311477772715    0.0000000000000000
  -1.5147756968469979   -0.2523054309542397   10.7704306573491095
O Zr
64 32
direct
   0.0362389600153684    0.1641533221986414    0.2035767014946512 O
   0.4598535076562381    0.4178545568555722    0.0683352847824888 O
   0.4556642202511977    0.3264006572888566    0.3169139038995590 O
   0.0260554747425465    0.0920702568517751    0.4259798664846727 O
   0.2225385396538444    0.3715163451205979    0.2043031797431938 O
   0.2817801396617594    0.1432916352767601    0.0029659240392772 O
   0.2842425724721911    0.1265265424128466    0.2512236866363119 O
   0.2349876266058358    0.4131732774547588    0.4725310095959179 O
   0.0277893560014242    0.1657080536807497    0.6883855055638819 O
   0.4776670726344998    0.4131182259156188    0.5817025046927909 O
   0.4702890901232048    0.3359397606829671    0.8211359781760799 O
   0.0376052300318656    0.0683351641882530    0.9405365885242383 O
   0.2213249913387087    0.3624375865188665    0.7286103517174926 O
   0.2622456078166604    0.1599219467809077    0.5064502883993818 O
   0.2598320522562184    0.1155371156296588    0.7493211064307030 O
   0.2073130207203212    0.3823320747978682    0.9584073880608069 O
   0.0466416061130019    0.6596390309928236    0.1755333219855964 O
   0.4768210114451861    0.9152139164021016    0.0790251625007432 O
   0.4565382146915339    0.8479608645367246    0.3178561584317002 O
   0.0044197707855871    0.6006266254608993    0.4116858651677476 O
   0.2306619915561023    0.8914079211421770    0.2130962990726775 O
   0.2730207993921237    0.6215101431685647    0.0002833065359293 O
   0.2786468848200425    0.6092364967977312    0.2539015740316799 O
   0.1916423666845374    0.8975433205798620    0.4838945993068351 O
   0.0243769411872465    0.6701187564246418    0.6647433969889336 O
   0.4395027861969198    0.9375895207301349    0.5873635699500466 O
   0.4685707187878502    0.8263531342994740    0.8233992735702493 O
   0.0599207660844965    0.5733770613310496    0.9184840633507965 O
   0.2060542596464540    0.8752322594425003    0.7209262659800734 O
   0.2847386451072338    0.6369710839912071    0.5088030979764723 O
   0.2323495114394072    0.6079048189835969    0.7433104647433322 O
   0.2268249469416707    0.8790687824219300    0.9764515624288385 O
   0.5294702130998133    0.1477090469409882    0.1746881196636457 O
   0.9432536474950127    0.4225576670345140    0.0732617684012098 O
   0.9483420644774260    0.3363801730226049    0.3358909102610025 O
   0.5249263521815170    0.0886470950248146    0.4250366696968016 O
   0.7214174721692190    0.3902329202340452    0.2311809903906698 O
   0.7913618745450824    0.1186237986400923    0.0172052557502477 O
   0.7754594663134217    0.1348051553294871    0.2576856682426379 O
   0.7118410668499461    0.3604623751572374    0.4678451777934947 O
   0.5445975524587392    0.1652163864599900    0.6837364216792153 O
   0.9669832426765461    0.4014852655924815    0.5672257059963889 O
   0.9751534999145710    0.3279753212204827    0.8306894969232425 O
   0.5496479864712231    0.0683698086854047    0.9243976528186921 O
   0.7284041615985758    0.3722415068088065    0.7353135504935543 O
   0.7663967331269992    0.1389008002161091    0.5197096942340551 O
   0.7911520600550319    0.1165195009075360    0.7916754478412514 O
   0.7097643962804787    0.3603589162257299    0.9798059885747743 O
   0.5370799816250421    0.6829856306198273    0.1917975775360903 O
   0.9727303595310250    0.9163016589358844    0.0733759696563992 O
   0.9865177626158631    0.8273440620568921    0.2945739910906109 O
   0.5373036504463335    0.6033972366883421    0.4473426613366133 O
   0.7421032042651187    0.8580723141369423    0.2459602527956866 O
   0.7770503157578904    0.6169351702006547    0.0063237470224578 O
   0.7792007960292088    0.5988602302955218    0.2626664257264064 O
   0.7068334045933090    0.8909703563015499    0.4667917372152149 O
   0.5237927261132266    0.6381670312844797    0.7036519135591653 O
   0.9486659468468889    0.9276356324403211    0.5481968756347957 O
   0.9601840092792644    0.8427062897657226    0.8087566380789387 O
   0.5407847394655312    0.5919104476944025    0.9363765347412981 O
   0.7088628526933894    0.8671795476725972    0.7174060030299443 O
   0.7646602607542828    0.6042657222213486    0.5176226004385381 O
   0.7805335846963853    0.6109326537866721    0.7640400645432859 O
   0.7254544016393005    0.8579441769263164    0.9957677804259381 O
   0.1434483899346305    0.0446908116409789    0.1070116298379916 Zr
   0.3763068850187147    0.2734913796056059    0.1538718324479606 Zr
   0.3748242328583514    0.4878573383277141    0.3936416907904313 Zr
   0.1278548565772415    0.2370766829010604    0.3767564895031542 Zr
   0.1211653911784691    0.0151429595376228    0.6048254310197960 Zr
   0.3603310869192053    0.2865784599683215    0.6402617396264138 Zr
   0.3542806673694946    0.4811353552161557    0.8858924211901851 Zr
   0.1461218647994507    0.2324124884574268    0.8543014533519738 Zr
   0.1236669531026386    0.5134515595376838    0.0968925699259691 Zr
   0.3647562599062265    0.7788455518788976    0.1302730675808779 Zr
   0.3534685171640788    0.9824033742471382    0.3738025215317536 Zr
   0.1524205536966110    0.7215340491666584    0.3554379806148092 Zr
   0.1328578028697980    0.5115105181013859    0.5984708664274044 Zr
   0.3586036836721377    0.7737912508217121    0.6699323927197464 Zr
   0.3714156467087972    0.9832481306716695    0.8706674723913077 Zr
   0.1291783578606400    0.7331489753553028    0.8499435261164485 Zr
   0.6552312066364728    0.0236768787355055    0.1099929231977042 Zr
   0.8564261470558036    0.2825065441829853    0.1581939540028899 Zr
   0.8577212460808792    0.4698573824268212    0.4163566209063469 Zr
   0.6408726787057252    0.2285740671484776    0.3608493484193298 Zr
   0.6264616695622073    0.0221083843664444    0.6014314301796293 Zr
   0.8759960610583631    0.2598186647361100    0.6477875266054787 Zr
   0.8637286402380465    0.4747066639409528    0.8917343993154579 Zr
   0.6407446135947785    0.2101859029625154    0.8485744302771898 Zr
   0.6475478593370860    0.5132607774724245    0.1078549476484826 Zr
   0.8699634955258859    0.7557248534057617    0.1453981374023752 Zr
   0.8682025751905526    0.9805809783799424    0.3854591524032717 Zr
   0.6341189259375609    0.7329534474703662    0.3570548894046279 Zr
   0.6463984233907829    0.5114241441340098    0.6263616007031994 Zr
   0.8563196807106561    0.7799703118335771    0.6441570198742257 Zr
   0.8624354278739039    0.9749903993720482    0.9108103424078363 Zr
   0.6358767522344934    0.7243654069140865    0.8619261770619738 Zr
