1,1,1,1,1,1,1,1,1,1,1,1,1,1,1,1,1,1,1,1,1,1,1,1,1,1,1,1,1,1,1,1,1,1,1,1,1,1,1,1,1,1,1,1,1,1,1,1,1,1,1,1,1,1,1,1,1,1,1,1,1,1,1,1,1,1,1,1,1,1,1,1,1,1,1,1,1,1,1,1,1,1,1,1,1,1,1,1,1,1,1,1,1,1,1,1
1.0
   9.9104457304045379   -0.0000000000000000   -0.0000000000000000
  -0.0937389532138155   10.2341164774409030   -0.0000000000000000
  -0.4856027183850568   -0.0176731902777004   10.8227134501828139
O Zr
64 32
direct
   0.1826459316008866    0.0965409877592783    0.0249285368814272 O
   0.4023072261133799    0.8729754208380835    0.1153483874673696 O
   0.4231644362916649    0.1225314941185162    0.1297202275161674 O
   0.1211669226181696    0.3406623469602353    0.1089637376826308 O
   0.1494352508039402    0.3880404623209961    0.3898335243855813 O
   0.4062321773513147    0.1158581126446655    0.3692064850458093 O
   0.4073932685869405    0.8427089356501964    0.6048583620948981 O
   0.1296870563241641    0.1487708057382688    0.3297080196962736 O
   0.8634243846939061    0.8948770345032581    0.5817415266680326 O
   0.1637839853273493    0.1279531343761145    0.5772362713524928 O
   0.3707562114397757    0.3592031608570396    0.6019783247231728 O
   0.1069245571654809    0.4100848014821714    0.6375583140181399 O
   0.8466290650894962    0.3829052374173048    0.8401568487380037 O
   0.3468660843849584    0.3953946829931343    0.1109139992133602 O
   0.1390828302678757    0.4165537383237370    0.8751387200351324 O
   0.1265586676751019    0.1818416541196663    0.7983103214244353 O
   0.1087864498858762    0.6305764112413080    0.3362646402172392 O
   0.3933849536623032    0.5956925632722584    0.6416052956740443 O
   0.4042600581173247    0.8868535469538936    0.3688105743973639 O
   0.1640800443043079    0.8753274984913345    0.1101713124059345 O
   0.1872980113941467    0.8948683552457557    0.3701447649371454 O
   0.4230255682471228    0.6654756889911670    0.9034883792876203 O
   0.3833121979579494    0.3727582258769943    0.3601203828725748 O
   0.1601425563651938    0.6557096002389778    0.5871916761403909 O
   0.1852834602524756    0.6878951647794843    0.8257387088770278 O
   0.4075157424935916    0.6274345215266254    0.1520660293165389 O
   0.3861146324303784    0.9020441690538317    0.8327375398586170 O
   0.1340893665007479    0.9049700417934015    0.5943048393184015 O
   0.1435391446855588    0.9197459884590053    0.8558222488874585 O
   0.3964660886066042    0.1382592655643402    0.8669030226095026 O
   0.1719106595530561    0.6308985079750956    0.0780659823794677 O
   0.9187121929515233    0.6419529836681944    0.8939033730063861 O
   0.7019661631918316    0.2020951740128363    0.1515236600736481 O
   0.8810442333767641    0.8808195371441447    0.0580558644273619 O
   0.9269111942865199    0.1476926496040947    0.1180120440847878 O
   0.5927367953245257    0.4223842678532297    0.1527652509890736 O
   0.6580607135428712    0.3935855408543474    0.3823546871722914 O
   0.8955241210635592    0.3862091398583433    0.3305187388787030 O
   0.8631572565665646    0.1401561645987751    0.3720534511270816 O
   0.6308772920204400    0.1151599149295106    0.3730096840022877 O
   0.3868465828037516    0.1150827660100495    0.6231061579650423 O
   0.6161302762062706    0.1477948719207046    0.6230900947660303 O
   0.8676704683102041    0.1371271051820121    0.6020170653866793 O
   0.5992558789525609    0.3964197992505172    0.6312709883291416 O
   0.3847944215642039    0.4035705396565282    0.8667187682532195 O
   0.6135207140317605    0.3741758372538563    0.8924321728056887 O
   0.8617222866759816    0.1142833103405486    0.8562181595359037 O
   0.6343354923082828    0.1279791721405602    0.8926022537570576 O
   0.6686455451926866    0.6593346350642543    0.1091120860619342 O
   0.8748260305275242    0.3953358569493891    0.1051224594864223 O
   0.8933629869744115    0.6453359637561915    0.1598415632976755 O
   0.6315880264387533    0.9349751850168606    0.1390699551575558 O
   0.6383096259786117    0.8574231631751672    0.3746566345089279 O
   0.9605596951940831    0.9254482579167947    0.3167270638346336 O
   0.8614985548100080    0.6178960220815680    0.3949510711131132 O
   0.6063612943711513    0.6282262623048833    0.3366057470124060 O
   0.6797848846965576    0.6766294939189241    0.6262583248552618 O
   0.8687852701889247    0.3731478279151364    0.5809459257921862 O
   0.9160322323801569    0.6215393797733079    0.6506507673896745 O
   0.6271606428636357    0.9023537290904166    0.6338533840498312 O
   0.6332081537352794    0.8723977683093834    0.8844837232051361 O
   0.8779939580006719    0.8620164169303657    0.8105986698790228 O
   0.6569121590145542    0.6304722602033485    0.8539910440245351 O
   0.3833353426396999    0.6262444994549002    0.3687831724614848 O
   0.9979045936676142    0.0291382919224722    0.9778534388361946 Zr
   0.0117344505749337    0.2697200587360745    0.2455888178075252 Zr
   0.2968089728218526    0.9930731426303165    0.2323499058415451 Zr
   0.2531407560967367    0.2654083985379129    0.9662879344203047 Zr
   0.0151093685946816    0.0267152372501540    0.4879730657020021 Zr
   0.9807678900983250    0.2682349420432361    0.7184214106554454 Zr
   0.2275899985686217    0.0311833168834556    0.7199634779176732 Zr
   0.2633600947421417    0.2339586418135732    0.4490405919522806 Zr
   0.0300459489532132    0.4969178382483851    0.0054010425175779 Zr
   0.0388605022203232    0.7752113466446989    0.2253907604158914 Zr
   0.2517703984290570    0.4943362425582319    0.2415002608108275 Zr
   0.2809278679026385    0.7838028431135835    0.9626122961634932 Zr
   0.0121419029360633    0.5046086210891181    0.4810035264319103 Zr
   0.0263585199447437    0.7651598068952130    0.7436793762348060 Zr
   0.2376560037390703    0.5050454768363764    0.7227613095002409 Zr
   0.2835923986856904    0.7676603962285593    0.4744780874165396 Zr
   0.5070580992592091    0.9988207370813899    0.9802818168137669 Zr
   0.5037638404233752    0.2662907892935041    0.2244487009455995 Zr
   0.7689237097676390    0.0284644925519668    0.2243835032478828 Zr
   0.7616900342754361    0.2633311638979663    0.9816235665022199 Zr
   0.5016142786803918    0.0009270539307099    0.5150575116729013 Zr
   0.4759400828837394    0.2685338941104988    0.7469647732069858 Zr
   0.7378751274220126    0.0087874197397314    0.7417640757886272 Zr
   0.7355664460342805    0.2268522620328660    0.4948339421394861 Zr
   0.5144576449207445    0.5404442938439705    0.0075358418824830 Zr
   0.5146360517942806    0.7638964933492037    0.2566497487516017 Zr
   0.7591286901763175    0.5125713538578037    0.2350494684359429 Zr
   0.7741756224105487    0.7344429648998476    0.9656265085096076 Zr
   0.5131374340570427    0.5005650533828978    0.4722887676670086 Zr
   0.5265237358163525    0.7609783355021508    0.7366966084522290 Zr
   0.7779154162517007    0.5241118677390990    0.7235606899550430 Zr
   0.7623612298665585    0.7660065162825048    0.4874732166923336 Zr
