1,1,1,1,1,1,1,1,1,1,1,1,1,1,1,1,1,1,1,1,1,1,1,1,1,1,1,1,1,1,1,1,1,1,1,1,1,1,1,1,1,1,1,1,1,1,1,1,1,1,1,1,1,1,1,1,1,1,1,1,1,1,1,1,1,1,1,1,1,1,1,1,1,1,1,1,1,1,1,1,1,1,1,1,1,1,1,1,1,1,1,1,1,1,1,1
1.0
  10.3455951613000430    0.0000000000000000    0.0000000000000000
   0.4374847610150112   10.3540141382265016    0.0000000000000000
   0.3823474977620043    0.2438817456445579   10.0369413314897127
O Zr
64 32
direct
   0.1548406583878881    0.1187273066629419    0.0835161441235191 O
   0.3944387268785731    0.1329123063300216    0.1138508154486139 O
   0.3646904515256884    0.4171909429434156    0.0991549037830520 O
   0.1083359584276686    0.3842053666785368    0.1267029122916323 O
   0.1550093081960540    0.3790634860390051    0.3980509148405093 O
   0.3875541315547336    0.3400675795419045    0.3522105348378387 O
   0.4306858353545888    0.0938371150399305    0.3600862785120589 O
   0.1651612512488342    0.1616893914041762    0.3403195199401471 O
   0.1203711576625213    0.1331662502928026    0.5923043803542525 O
   0.3631125096427063    0.1067444470142746    0.6174805487759218 O
   0.3625755441617436    0.3702132481142258    0.6049684394238430 O
   0.1007111455208636    0.4085316476228723    0.6479056301741685 O
   0.1433559941578856    0.4071446483389451    0.8988781256093016 O
   0.3720635497468657    0.3804155922623318    0.8368588996876523 O
   0.3367827852907712    0.1359034172923797    0.8747826995315141 O
   0.1192642721390768    0.1604041635494699    0.8382615854994971 O
   0.1314380743794874    0.6370802459270200    0.1205498985137951 O
   0.3667850046017890    0.6336006320741254    0.1583806291576737 O
   0.3496835263591567    0.8871665878298868    0.0931281982059036 O
   0.0817751644535282    0.9251893655449087    0.1800458094768781 O
   0.1141204529966523    0.8481512963013316    0.4199212272743690 O
   0.3636959992159107    0.8560235591830517    0.3365644626118997 O
   0.3843090766241549    0.5992047944827369    0.4168328493137698 O
   0.1296788824232286    0.6209063416314600    0.3442208288754847 O
   0.1147882674613279    0.6638412873178281    0.6028041056709051 O
   0.3869561032094039    0.6091619179263588    0.6700902885921082 O
   0.3473951229298139    0.8870919554390069    0.6082296601801410 O
   0.0842230097969229    0.9073871182720094    0.6650142184211930 O
   0.1182979281232555    0.9228728538131432    0.8925076338042538 O
   0.3680111080914670    0.8656792453230381    0.8574756269819311 O
   0.3498017750743841    0.6158429703800753    0.9012466417951456 O
   0.1027346524410116    0.6586974681731534    0.8902901176442091 O
   0.6489409798453931    0.1055416055750658    0.1135307713640757 O
   0.9024623500293985    0.1734037683022782    0.1069219084337038 O
   0.8865385126859784    0.3968996571217551    0.1107709846536468 O
   0.6634749101458335    0.3451154427661619    0.1542893830754467 O
   0.6129003220010687    0.3388705536050459    0.4134443706650706 O
   0.8767868706190542    0.3962725512254761    0.3734749477850768 O
   0.9006905577913170    0.1336838307374600    0.3681424624658609 O
   0.6625802907668177    0.0638107613563922    0.3923309577436316 O
   0.6152749888387762    0.1295286483961967    0.6060149930852701 O
   0.8593694162956699    0.1049539482251452    0.6408257231434223 O
   0.8474980206095266    0.3733235770536044    0.6044670053680107 O
   0.5987162915851555    0.3967513616009131    0.6731093394861222 O
   0.6209625582310750    0.3735038578781677    0.9201339913909076 O
   0.8851321283589267    0.3626899158730958    0.8457460586590957 O
   0.8561437464003854    0.1027728409652465    0.8793449897340417 O
   0.5944554608033834    0.1115790748480478    0.8459217505100053 O
   0.6247145318398523    0.6203839149282783    0.1030241133377755 O
   0.8556688130303084    0.6497861673870691    0.1852671815631710 O
   0.8635769382338028    0.8948682624010860    0.0999627064524332 O
   0.5918452657857309    0.8622035084698478    0.1805861806438375 O
   0.5878306249498282    0.8243581038330315    0.4037765700378453 O
   0.8849130774631276    0.8781166840416615    0.3273667564132626 O
   0.8803188240652390    0.6504937211865360    0.4079903255738381 O
   0.6022957383763523    0.5945262161789451    0.3694140916483447 O
   0.6653087345041462    0.6149260582050927    0.5978628908663109 O
   0.8951454684062863    0.5954402205996943    0.6666163382273086 O
   0.8483848859726146    0.8776417506795398    0.5783781889595226 O
   0.5955352072805203    0.8674355295350243    0.6608422490515380 O
   0.5932642503809545    0.8429764610951774    0.9155612546492864 O
   0.8228567328408495    0.8275217416114817    0.8316365779196102 O
   0.8439369896029656    0.5952483087527748    0.9245215394143116 O
   0.6374679466385731    0.6358696504645645    0.8507366571139104 O
   0.9916771292684041    0.0361333893347792    0.9992965804863716 Zr
   0.0254668705306529    0.2721152763978899    0.2467878224742355 Zr
   0.2615581861121045    0.0017694982861055    0.2304161903531567 Zr
   0.2527554415244644    0.2663511361142755    0.9856043752057813 Zr
   0.9980761062556646    0.9887693739559695    0.4840098183755115 Zr
   0.9894381576733455    0.2633803794393802    0.7175812223693661 Zr
   0.2227667917346898    0.0103904403098026    0.7620227153071149 Zr
   0.2621659069660415    0.2450857522629094    0.4892862722324097 Zr
   0.0015053422280080    0.5274210390828565    0.0189197560719243 Zr
   0.0126446970068663    0.7572383879510803    0.2656932160929742 Zr
   0.2758798502763507    0.4800837518491654    0.2696496068088802 Zr
   0.2697464250665076    0.7518764871583403    0.9968011698455403 Zr
   0.0071577336521660    0.5076618724872585    0.5020196583586222 Zr
   0.9960591902500346    0.7436010155427238    0.7480110521962848 Zr
   0.2486787685813116    0.4991014408433528    0.7561811984382205 Zr
   0.2568805770643462    0.7301381084461798    0.4963842233060587 Zr
   0.4956072882094909    0.0108879475603468    0.9738472660026246 Zr
   0.5211179948198937    0.2423699088029610    0.2421239159060926 Zr
   0.7379483392156838    0.9916965143016130    0.2446956648331303 Zr
   0.7497334714930655    0.2627319500076712    0.0015549046352435 Zr
   0.4988726974268763    0.9800848780919473    0.5121404590732083 Zr
   0.4699492553339842    0.2445294017443528    0.7429444788827142 Zr
   0.7358654171581157    0.9921132925653116    0.7304238223550400 Zr
   0.7657038329249665    0.2118908176178770    0.4918247821587419 Zr
   0.5047483016633045    0.5034213959837228    0.0049680561192041 Zr
   0.4939624679585307    0.7312837640386431    0.2630834797365585 Zr
   0.7571007542017745    0.5102488054619317    0.2688832104291519 Zr
   0.7462926277037500    0.7564038621788164    0.9880925518001434 Zr
   0.5227327682646290    0.4910401738634286    0.5241036500827325 Zr
   0.4954250688791110    0.7436300930881630    0.7659924016073621 Zr
   0.7428575994264682    0.4961413459360809    0.7654890681780683 Zr
   0.7426579335618044    0.7489057304828366    0.4945636757810203 Zr
