1,1,1,1,1,1,1,1,1,1,1,1,1,1,1,1,1,1,1,1,1,1,1,1,1,1,1,1,1,1,1,1,1,1,1,1,1,1,1,1,1,1,1,1,1,1,1,1,1,1,1,1,1,1,1,1,1,1,1,1,1,1,1,1,1,1,1,1,1,1,1,1,1,1,1,1,1,1,1,1,1,1,1,1,1,1,1,1,1,1,1,1,1,1,1,1
1.0
  10.0253645504168158   -0.0000000000000000    0.0000000000000000
  -0.1285036842359960   10.3878257379011867    0.0000000000000000
   0.4191934505460290    0.0813152624680160   10.2056859701358746
O Zr
64 32
direct
   0.1168628613226502    0.1178691741045461    0.1502052586553955 O
   0.3467655050213517    0.1005097930813528    0.1213200685699244 O
   0.3718155051404783    0.3530695300249753    0.1441560241227384 O
   0.1179876781114179    0.3570821536412238    0.0777797607552128 O
   0.1211639742239602    0.3940796895904262    0.3206630944432665 O
   0.3768082152404706    0.3817105902990614    0.4053875922114933 O
   0.3895405973182611    0.1250862628194117    0.3490562369863485 O
   0.1414874126114492    0.1325403595590735    0.3865175209136366 O
   0.1088327573653303    0.1038606397741366    0.6513380857643124 O
   0.3698427047124017    0.1235408539166050    0.6031526396670078 O
   0.3620088123210174    0.3522157183220421    0.6478985115698174 O
   0.1206443049838937    0.3753463419456046    0.5892287407820308 O
   0.1058021629146910    0.3971151407709899    0.8302892143454014 O
   0.3451996978862112    0.4108353800849373    0.9100513601905730 O
   0.3626227019673002    0.1462042608997058    0.8612111196561717 O
   0.1072028415089890    0.1446938203920139    0.8859686303653354 O
   0.1279488146928578    0.6297987434091541    0.1657823231138940 O
   0.3770908764463831    0.6153849642085082    0.1042697166573539 O
   0.3674609683002237    0.8543551076660555    0.1428359661727464 O
   0.1060896808509663    0.8763832554274865    0.0887138759167549 O
   0.1117943863700788    0.8750680551451083    0.3557145826084699 O
   0.3833560476797457    0.8555012940220661    0.4044606012647128 O
   0.3565488855822221    0.6050537454254803    0.3676683878065713 O
   0.1102625762873498    0.6400425412078241    0.4254482853485440 O
   0.1290425484591165    0.6118453853016855    0.6501398500420117 O
   0.3838815449837234    0.6082931789240561    0.6305826252867077 O
   0.3858844570906764    0.8830641620418140    0.6600464709194179 O
   0.1299284145305319    0.8741025388333561    0.5947335822855219 O
   0.1107744747804706    0.8917907199224587    0.8596369481749982 O
   0.3726615460903536    0.8849825671913234    0.9131701993252613 O
   0.3776105456938423    0.6421357883323381    0.8701669561935156 O
   0.1468715744902194    0.6201824340901420    0.9132387243222138 O
   0.6233227904558765    0.1261537702830828    0.1441883831430890 O
   0.8610457277279043    0.1228094315961494    0.0937706400628413 O
   0.8776984557090742    0.3944245168467030    0.1359549143056307 O
   0.6280056416930054    0.3706207515604933    0.0961094363152290 O
   0.6462844001679634    0.3586936139590796    0.3340245173009781 O
   0.8930709518093490    0.3573453879661914    0.3813457870434734 O
   0.8939422477127968    0.1094971569185473    0.3290326615502645 O
   0.6224233255673122    0.1265782477823159    0.4049421797215047 O
   0.6363660027391393    0.1226598445612679    0.6336348429025693 O
   0.8742550399006417    0.1082645209056304    0.5855236322169965 O
   0.8741103095890413    0.3674551402329150    0.6414476444068800 O
   0.6213082222161536    0.3693482904232606    0.6033068209150498 O
   0.6104408213380386    0.3577922063791454    0.8440322833767653 O
   0.8574789511732088    0.3935036823781678    0.8935149457551449 O
   0.8663482966771430    0.1541411157992044    0.8457787190844830 O
   0.6241989430830082    0.1001958545754636    0.9017998083550153 O
   0.6052771546380483    0.6180493618362020    0.1647411238421258 O
   0.8512526337279844    0.6339590113765580    0.1393507086404174 O
   0.8753332321509957    0.8734799070840881    0.1493667791719938 O
   0.6132062387780273    0.8681355703319349    0.1213200685699244 O
   0.6257375525731949    0.8584687510929528    0.3619199018672945 O
   0.8917207831265148    0.8471972709522745    0.4122562715148863 O
   0.8431360801123907    0.6005612776861233    0.4055912637340232 O
   0.5927273852902251    0.6320027238006126    0.3905547853680367 O
   0.6149478592429749    0.6386612894976896    0.6568200855988865 O
   0.8843978178722571    0.6230809257099319    0.6344961640548880 O
   0.8630593246127651    0.8786562012628722    0.6529236780848436 O
   0.6364252547490026    0.8937450648081350    0.5921201150009073 O
   0.6362387566307859    0.8549282008392977    0.8459795354045225 O
   0.8702637858547290    0.8832545455466609    0.8984192417864419 O
   0.8951807117908096    0.6356520646189671    0.8755661549892891 O
   0.6475665747462943    0.5976307317028658    0.9082925519093339 O
   0.9971971262569899    0.0077043556485433    0.0014425323925388 Zr
   0.9972748338082976    0.2488209661900450    0.2411236548528876 Zr
   0.2433474406242045    0.0243971904486932    0.2523189263843003 Zr
   0.2427714334096007    0.2415698804214044    0.9889750265327460 Zr
   0.9957595365798030    0.0024501207929848    0.4914350031322027 Zr
   0.0027046488678473    0.2489637538090849    0.7375615678678171 Zr
   0.2575339252370185    0.0013178149416401    0.7426866666659828 Zr
   0.2584955561755762    0.2574921574362505    0.5017870364995974 Zr
   0.0051541589873260    0.5093928372152812    0.0061552820147340 Zr
   0.9871534254104786    0.7424455507278009    0.2633314645937729 Zr
   0.2673911279710328    0.4931519592494293    0.2291660427181322 Zr
   0.2674134688969325    0.7592770060809058    0.0058207551921382 Zr
   0.0010083251989884    0.4893151489627296    0.5128557271325013 Zr
   0.9895623594569889    0.7579792899903077    0.7595666578203361 Zr
   0.2568374713261549    0.5199717488245582    0.7706096515818324 Zr
   0.2331075282103386    0.7412906222678664    0.5015662337327287 Zr
   0.5024078998131315    0.0008590945569462    0.9959322172995176 Zr
   0.5263039428124763    0.2453435533181338    0.2369893133080401 Zr
   0.7377733842727203    0.9883676058748252    0.2440302568477759 Zr
   0.7547563693498103    0.2597855015050976    0.9990348769240306 Zr
   0.4978134409062433    0.9858129701705705    0.4889319372359217 Zr
   0.4958212135960289    0.2367850380165415    0.7358617672222983 Zr
   0.7589273221026877    0.0171085136461362    0.7471769575032767 Zr
   0.7538141653105650    0.2319895108314716    0.4946994578976628 Zr
   0.5028586036030100    0.5010596738111998    0.0065955903402252 Zr
   0.4856512379755218    0.7435431698768971    0.2412530909538871 Zr
   0.7607631629790528    0.4936706571432445    0.2524559763782049 Zr
   0.7512527301913143    0.7525902713907529    0.0027184583359888 Zr
   0.4995094081889410    0.5126623823912319    0.5036876534553573 Zr
   0.5030616145757482    0.7514071739471866    0.7425953000099120 Zr
   0.7499812403966447    0.5066517033850702    0.7604660484175835 Zr
   0.7519219864638975    0.7512653576678895    0.5132878153148051 Zr
