0,0,0,0,0,0,0,0,0,0,0,0,0,0,0,0,0,0,0,0,0,0,0,0,0,0,0,0,0,0,0,0,0,0,0,0,0,0,0,0,0,0,0,0,0,0,0,0,0,0,0,0,0,0,0,0,0,0,0,0,0,0,0,0,0,0,0,0,0,0,0,0,0,0,0,0,0,0,0,0,0,0,0,0,0,0,0,0,0,0,0,0,0,0,0,0
1.0
  10.5722225807647199    0.0000000000000000   -0.0000000000000000
  -0.3307401897755832   10.7235811872127442   -0.0000000000000000
  -2.0518959110957775    0.0431560820970853   10.7715716820711780
O Zr
64 32
direct
   0.0282454741499059    0.1579013107680743    0.1772926349994633 O
   0.4800687998483039    0.4150154176901781    0.0684343853949325 O
   0.4448812057761966    0.3222942830514585    0.3309376762012662 O
   0.0385720939671570    0.0987856180201934    0.4340587518887482 O
   0.2026044622879027    0.3614782860922601    0.2172420576557917 O
   0.2655139899658523    0.1291941061400254    0.0098613886473785 O
   0.2683647772915779    0.1157070166298507    0.2799838435852198 O
   0.2287418929259455    0.3581647865896503    0.4815228536828230 O
   0.0248178068071713    0.1811820322156035    0.6833666273373976 O
   0.4589915530924059    0.3828753252328260    0.5480431433070967 O
   0.4849559576053994    0.3375276635441064    0.8209165784523410 O
   0.0359450230519397    0.0889415776763828    0.9110626279760343 O
   0.2617317411562068    0.3962970354268646    0.7313791153999156 O
   0.2660233670725713    0.1355406373637702    0.5128288432963238 O
   0.2808306923437122    0.1427522601145390    0.7668323349923392 O
   0.2398017030427377    0.3684151262154198    0.9756950766983301 O
   0.0295128492296118    0.6759546883310014    0.1652036806626750 O
   0.4366659599032529    0.9369460729080223    0.0783050561232320 O
   0.4751765680878862    0.8438080267002007    0.3331124087279030 O
   0.0369922051458738    0.5850262734697680    0.4287131615144261 O
   0.2175341865728483    0.8806203713841699    0.2638219688896484 O
   0.2816436843625554    0.6291933173753662    0.0222764400017307 O
   0.2655324253467399    0.6099841164861153    0.2589429301243514 O
   0.2124436926093206    0.8650117704763977    0.5072734928176559 O
   0.0512398552025707    0.6770073900614161    0.6659922828198281 O
   0.4663785129519469    0.9120090754732940    0.5735642691477727 O
   0.4675063424897145    0.8477251004691568    0.8188848214120544 O
   0.0390370395439258    0.5835424472663219    0.9158824071626143 O
   0.2209398656051630    0.8971935540798216    0.7409942174348757 O
   0.2772293968010576    0.6153679609793833    0.5207009611638712 O
   0.2831752724938330    0.6418352134095059    0.7746705902527605 O
   0.2053546567003180    0.8714824276474181    0.9852142346472733 O
   0.5292182933393669    0.1744593330367992    0.1838328232634710 O
   0.9566860151276728    0.4242395863191153    0.0693303338029130 O
   0.9427207604257234    0.3387120714307782    0.3180397815577906 O
   0.5231664257123295    0.0880333737074546    0.4348770984736456 O
   0.7027784239037523    0.3823845066101328    0.2408640550494974 O
   0.7517233013212676    0.1294281451351784    0.0165959859597413 O
   0.7624322480840114    0.1166100092046679    0.2445202770811951 O
   0.7228380778686860    0.3718176931944557    0.4763268232007385 O
   0.5572568779463496    0.1733630451012764    0.6603268788378286 O
   0.9803577914980651    0.4144090008504283    0.5940116461695120 O
   0.9779087087969548    0.3519783873021713    0.8204490862099247 O
   0.5218554618100860    0.0948603955269044    0.9385129823650927 O
   0.7252102958963715    0.3875163091016789    0.7211140392472831 O
   0.7538655815074827    0.1111370972406429    0.4971156482774652 O
   0.7734237376250389    0.1262596171513933    0.7606110197119013 O
   0.7382810668363167    0.3656189760681168    0.9742747280294850 O
   0.5353333487423679    0.6538403717624723    0.1879621813100813 O
   0.9574501057125332    0.9226621137823381    0.0762896660166857 O
   0.9762141753899514    0.8509201591897790    0.3528505520532528 O
   0.5387155714254457    0.5681423021403212    0.4292446164746646 O
   0.7150669541537146    0.8805398316462713    0.2565622000083663 O
   0.7689167202097024    0.6390077949018889    0.0054048142572269 O
   0.7704897197900755    0.6292255332720812    0.2537534840388707 O
   0.7156094600630790    0.8598155361852495    0.5016494764727774 O
   0.5239490017319945    0.6461009768592108    0.6596684390567699 O
   0.9572550753313448    0.9346549542931705    0.6028789487432841 O
   0.9641349291696203    0.8315792521371402    0.8490677008929702 O
   0.5621943035743716    0.5798006658664070    0.9033005636118187 O
   0.7343959050952457    0.8797865482312517    0.7493422932082255 O
   0.7695310982194854    0.6061940112438857    0.5046782994582198 O
   0.7789247972207707    0.6379020316991890    0.7515283132705710 O
   0.7241404915134104    0.8682987392474689    0.9937927643388879 O
   0.1336644923485216    0.0245565016095295    0.1100123177449017 Zr
   0.3617881463347618    0.2830771165887908    0.1505505736919705 Zr
   0.3575776420501237    0.4771522980731257    0.3993721443232162 Zr
   0.1335737304403960    0.2414238599765708    0.3517500169920851 Zr
   0.1392311580373469    0.0323450731249639    0.6103597652553370 Zr
   0.3744525756063927    0.2602730008774741    0.6346900557213248 Zr
   0.3914055877029990    0.4738444837252714    0.8903603406978308 Zr
   0.1457684550186282    0.2219796725647344    0.8565174766795033 Zr
   0.1413897067382492    0.5351096399111863    0.0877907277054085 Zr
   0.3583021550648000    0.7714378621593279    0.1519643379549283 Zr
   0.3510683434460038    0.9727493020774616    0.4001923721656124 Zr
   0.1330975849844140    0.7252639575186139    0.3748048155423603 Zr
   0.1439079385478969    0.5082425313747653    0.6116907542440528 Zr
   0.3583914985220965    0.7745902821888740    0.6426223738102641 Zr
   0.3596019230255729    0.9880992283068216    0.8835652421773587 Zr
   0.1345440008650036    0.7327494153765782    0.8430119361795838 Zr
   0.6280844329886315    0.0135518552343791    0.1084358247872153 Zr
   0.8497510119756754    0.2697056252944806    0.1573061658235366 Zr
   0.8606036889089062    0.4859661878112936    0.4050714109309093 Zr
   0.6281047920206295    0.2219872527717458    0.3553686138923757 Zr
   0.6295242078116857    0.0061274076606462    0.6062059508798106 Zr
   0.8606891926764170    0.2745863333210073    0.6503806756594823 Zr
   0.8756895510747378    0.4776601721801764    0.8937343742439744 Zr
   0.6367641045711947    0.2226912648190552    0.8484694613240198 Zr
   0.6504395071534239    0.5084879406896022    0.0966997001035338 Zr
   0.8624273754892449    0.7718216103178480    0.1391172372360672 Zr
   0.8702849774178504    0.0010256521663944    0.3938873409682578 Zr
   0.6427634231699784    0.7208541700784429    0.3528458489048641 Zr
   0.6275025706957307    0.5114821238272718    0.6026466135582371 Zr
   0.8695633988164853    0.7555194201445610    0.6423872167436109 Zr
   0.8575815735566127    0.9837785083347832    0.8892964901346790 Zr
   0.6520141223993863    0.7336078742088282    0.8533155780970146 Zr
