0,0,0,0,0,0,0,0,0,0,0,0,0,0,0,0,0,0,0,0,0,0,0,0,0,0,0,0,0,0,0,0,0,0,0,0,0,0,0,0,0,0,0,0,0,0,0,0,0,0,0,0,0,0,0,0,0,0,0,0,0,0,0,0,0,0,0,0,0,0,0,0,0,0,0,0,0,0,0,0,0,0,0,0,0,0,0,0,0,0,0,0,0,0,0,0
1.0
  10.1128738069006712   -0.0000000000000000    0.0000000000000000
  -0.2841568224628060   10.2204349642360146   -0.0000000000000000
  -2.1705937573531826   -0.4899409719839108   10.7091181167718119
O Zr
64 32
direct
   0.0296307266221836    0.1754850973217762    0.1509387113929096 O
   0.4494454832287336    0.4207542997863231    0.0820869457517004 O
   0.4559274479583045    0.3556468191553279    0.3183917500975167 O
   0.0227525460068915    0.0968896883184796    0.4039297186409184 O
   0.2219462917072998    0.3719036215504102    0.2452877509573902 O
   0.2874861969683159    0.1133514686128023    0.0126145725938377 O
   0.2651467140848680    0.1249066799146717    0.2484866023218503 O
   0.2046704591367001    0.3663247823530537    0.5004179663409524 O
   0.0311005615818999    0.1533331495020728    0.6755939733047733 O
   0.4558106036301798    0.4176476183522471    0.5750910343265970 O
   0.4858433828628322    0.3431895139549592    0.8294869937878452 O
   0.0314798264515746    0.0850865923222632    0.9230135528918474 O
   0.2376253855267830    0.3745162536721012    0.7437773193971505 O
   0.2613359301637697    0.1187057399437977    0.5088296552697467 O
   0.2692393878856975    0.1295394672370762    0.7696299580160491 O
   0.2069183930310733    0.3564562190816999    0.9958509810810448 O
   0.0340278399911733    0.6434300635662472    0.1646362840128499 O
   0.4824842769142917    0.9342645641648869    0.1043931472610371 O
   0.4577957745161710    0.8300765409257409    0.3278981823443102 O
   0.0322359446246213    0.6008510402844142    0.4273538105469676 O
   0.2218466120242324    0.8613516778140603    0.2167362000858820 O
   0.2635421732317068    0.6226073664112681    0.9951259152431920 O
   0.2781774129340778    0.6133217239872807    0.2438884906507425 O
   0.2373837576052426    0.8663074606227943    0.4741355887977262 O
   0.0327673851760106    0.6804636939402917    0.6695766796399403 O
   0.4586847996067865    0.9164558544623638    0.5849532107213641 O
   0.4500583262933883    0.8243686946591704    0.8425034349438811 O
   0.0195639865221374    0.6020914193966482    0.9415625270122187 O
   0.2233314863507364    0.8919387769759642    0.7461375632308995 O
   0.2765884688041031    0.6254827907168196    0.5153838854252693 O
   0.2672851759809230    0.6179956024514812    0.7696669554135639 O
   0.2499703232773388    0.8696855347191911    0.9985557157085055 O
   0.5462730843646378    0.1835026480001745    0.1728753184448090 O
   0.9757202968330109    0.4152366195023054    0.0623705616388648 O
   0.9530647504097952    0.3388567875264901    0.3339078867847913 O
   0.5353300843344322    0.0847494538430107    0.4111878478773742 O
   0.7187628572813846    0.3870127387960365    0.2452109102230714 O
   0.7772172957014316    0.1225262605112609    0.0265287222535220 O
   0.7755286083879376    0.1369263166674681    0.2637048625859483 O
   0.7335312345166680    0.3811605957262677    0.4745141005627287 O
   0.5245054137186650    0.1757182656633554    0.6649169056458663 O
   0.9546767450934517    0.4344615401837785    0.5814005125080149 O
   0.9585114072095363    0.3377387262312295    0.8169287510890952 O
   0.5803545028467179    0.0549747169981629    0.9062518373572249 O
   0.7102417480459939    0.3718137943960759    0.7235501815564769 O
   0.7491923632590102    0.1354814374504507    0.5112126667205245 O
   0.7772428436593571    0.1259377808869268    0.7537903313119285 O
   0.7281536381570174    0.3638344680391144    0.9935647320329877 O
   0.5631926158816850    0.6750492193142795    0.1805461108951553 O
   0.9896625601932658    0.8876586089812949    0.0552823358043661 O
   0.9890633817280281    0.8517162828864678    0.3204360931200960 O
   0.5295525569174160    0.5697058660779568    0.4062131217310107 O
   0.7473049944350427    0.8800309463487169    0.2608845229958285 O
   0.7802771203204718    0.6156448069035551    0.0135717615134319 O
   0.7735747696475269    0.6353609100689428    0.2580233914006869 O
   0.7156316006274117    0.8850679558409615    0.4889430831470182 O
   0.5339571176943528    0.6655132076152016    0.6940974121724111 O
   0.9546375926600256    0.9021064455282620    0.5797840111013409 O
   0.9542850245693846    0.8323805116863406    0.8319117458931873 O
   0.5308192581997612    0.5975580152969507    0.9320399676951925 O
   0.7126760746667823    0.8823989428403062    0.7443246910608191 O
   0.7591647192681358    0.6336627947453775    0.5029309429937967 O
   0.7807498528930216    0.6165784358735017    0.7615455537116078 O
   0.7297359219046665    0.8547006465080529    0.0052046805061108 O
   0.1384506148995198    0.0159325898393469    0.1003632775715421 Zr
   0.3519132100298357    0.2610263426907082    0.1497680759901339 Zr
   0.3528328090194904    0.4843987446575529    0.3954668025527989 Zr
   0.1229963778467894    0.2496794539285851    0.3544869741752695 Zr
   0.1385598137795327    0.0134529783415266    0.5898871448627057 Zr
   0.3485867559576014    0.2716011002237954    0.6439194631442438 Zr
   0.3752214073276934    0.4845889106388674    0.8957075808490114 Zr
   0.1361521736361150    0.2184721652091617    0.8616064212933928 Zr
   0.1486144998982933    0.5097424230208596    0.1047640698203633 Zr
   0.3671675794190304    0.7697222542186757    0.1436976578668910 Zr
   0.3607927992892255    0.9917367372969882    0.3805568538848565 Zr
   0.1507543074192223    0.7340780778034716    0.3522756685624466 Zr
   0.1381242498842100    0.5252404727036882    0.6140331602283433 Zr
   0.3544309493739734    0.7697662121866337    0.6549057910395107 Zr
   0.3822469603717457    0.9748033644838305    0.8868433853695225 Zr
   0.1472703795136783    0.7381403671813372    0.8576818518618372 Zr
   0.6441441683006462    0.0307570314750330    0.1120003800893325 Zr
   0.8541828224232841    0.2681819349880728    0.1333355423696113 Zr
   0.8661250172248172    0.4879411833205172    0.3978877600506340 Zr
   0.6371585452627349    0.2383306539447557    0.3594294461905053 Zr
   0.6217603272105864    0.0203703375788956    0.5967534812218910 Zr
   0.8622778605204514    0.2738037765424501    0.6483354338137554 Zr
   0.8733195070862236    0.4800956420736805    0.8987887994834685 Zr
   0.6594165478316385    0.2211975590661861    0.8509141752231331 Zr
   0.6402210189197421    0.5146523366473879    0.1156033568031267 Zr
   0.8661078292719614    0.7558095581249650    0.1192983526719301 Zr
   0.8548855514136835    0.9731119384194643    0.4018749404453602 Zr
   0.6348460241269553    0.7228324834827858    0.3688078105436548 Zr
   0.6147942628506590    0.5246986429904844    0.6098733253461197 Zr
   0.8522159449599690    0.7647416256052957    0.6532115002489756 Zr
   0.8654987256129539    0.9749275935110647    0.8968450134711171 Zr
   0.6486304769275764    0.7292350567281397    0.8539564991609907 Zr
