0,0,0,0,0,0,0,0,0,0,0,0,0,0,0,0,0,0,0,0,0,0,0,0,0,0,0,0,0,0,0,0,0,0,0,0,0,0,0,0,0,0,0,0,0,0,0,0,0,0,0,0,0,0,0,0,0,0,0,0,0,0,0,0,0,0,0,0,0,0,0,0,0,0,0,0,0,0,0,0,0,0,0,0,0,0,0,0,0,0,0,0,0,0,0,0
1.0
   9.9817731613942051    0.0000000000000000    0.0000000000000000
  -0.2642869638114062   10.7955873192184164    0.0000000000000000
  -1.6424568040218392   -0.0666002191968693   10.1748136796596480
O Zr
64 32
direct
   0.0406031596133818    0.1610452741412070    0.1710796026840098 O
   0.4783281949452367    0.4027850165429423    0.0531683814988636 O
   0.4446552526370423    0.3366219509897213    0.2982209130046202 O
   0.0342249113471703    0.1097819135661779    0.4496593410006346 O
   0.2079546016574783    0.3714532830342568    0.2223826510674433 O
   0.2477871355056333    0.1268992047849008    0.0177229911404168 O
   0.2997494185906251    0.1043255093062172    0.2622599316913742 O
   0.2130722134476200    0.3622450654882004    0.4963686506217124 O
   0.0194785847678721    0.1528944550100568    0.7035328524501737 O
   0.4480029542699904    0.3850643134360711    0.5585343511263292 O
   0.4637264966046408    0.3516853576115275    0.8049541387743591 O
   0.0463208486076412    0.0730353674387736    0.9372419104502945 O
   0.2224269030625106    0.3727857382906553    0.7403611830513621 O
   0.2770523880471779    0.1238155226281851    0.5103180457525279 O
   0.2901748826201971    0.0957487803748125    0.7457929815235527 O
   0.2357405386235391    0.3586464845493276    0.9841193989052924 O
   0.0262300015548847    0.6515934340572482    0.1752793494553363 O
   0.4835152060618333    0.9247029801210116    0.0573463028189346 O
   0.4959505770947860    0.8663014664106496    0.2972751432634763 O
   0.0329832666300445    0.6063784685817730    0.4194986398751212 O
   0.2222637448778911    0.8734910142498220    0.2379410830431033 O
   0.2817638151692882    0.6264766525492453    0.0102502102135288 O
   0.2896272259827415    0.6335329548668376    0.2613623480119545 O
   0.2071559751491091    0.8562233459298054    0.5128341145186006 O
   0.0428268788402173    0.6623472997015355    0.6731945242391035 O
   0.4874289975700858    0.8736642334315499    0.5374118451850519 O
   0.4844826544028767    0.8841639808173116    0.7946479885389369 O
   0.0505044188136156    0.5560192740734827    0.9090398313818945 O
   0.2391111995576534    0.8654077696355361    0.7560481112178284 O
   0.2563997900609105    0.6299686370725492    0.5015557394335211 O
   0.2673083075150557    0.6279927962754497    0.7518171852219983 O
   0.2478121351410562    0.8753897629832209    0.9952683329665396 O
   0.5293718506480470    0.1639566888601091    0.1871831986375703 O
   0.9620873119113437    0.4197062464936492    0.0756924407215054 O
   0.9657165070944436    0.3310418187421151    0.3211017381213891 O
   0.5217234955448042    0.0933426517092661    0.4440621981641178 O
   0.7225312515971248    0.3798125362346383    0.2294631690275923 O
   0.7644777888014499    0.1266726873924817    0.0190984672563066 O
   0.7537755409917658    0.1180459913859565    0.2864124911422929 O
   0.7322085274449439    0.3777881560051636    0.4856760669906734 O
   0.5331415269530778    0.1544315373179296    0.6988606932247883 O
   0.9715248306644896    0.4173754015536520    0.5648013748289326 O
   0.9454712238214076    0.3229081311818408    0.8230494256657608 O
   0.5275528576000342    0.1214799189293480    0.9486572851447906 O
   0.7133561236466743    0.3583400198448805    0.7326807012695459 O
   0.7659064950817545    0.1159825892546396    0.5247455222962469 O
   0.7630318466462515    0.0988583502340171    0.7745865209950097 O
   0.7159381695087657    0.3915390942113884    0.9711847457368422 O
   0.5269717614967298    0.6419721553830194    0.1916059240964119 O
   0.9885338911767615    0.8954260829637235    0.0592865952725906 O
   0.9820390159040738    0.8598971154180434    0.3453705110418835 O
   0.5295195928547043    0.5812179063966801    0.4235680008092454 O
   0.7362826846641281    0.8835910250655179    0.2296228444429021 O
   0.7680706825477247    0.6421615543767306    0.0117013101220722 O
   0.7687694054636618    0.6094107560309227    0.2698034138539457 O
   0.7583810297260021    0.8447861211021355    0.4792002369780099 O
   0.5130297927872165    0.6450206226502864    0.7020768772484248 O
   0.9938563957942195    0.9186669578322237    0.6076803642174237 O
   0.9478390739606105    0.8116593800219737    0.8346783307961355 O
   0.5510843384787110    0.6075852923363175    0.9272012560052670 O
   0.7286739669394668    0.8557151094292752    0.7194852764168629 O
   0.7740361756566554    0.6081182744396686    0.5164839731862084 O
   0.7649235007557917    0.6136650952997856    0.7758913242098873 O
   0.7272613475335906    0.8833064506956095    0.9747561839315922 O
   0.1385896306996399    0.0148131641336590    0.1155569662027787 Zr
   0.3718873003038756    0.2557638075043081    0.1359103846456142 Zr
   0.3450134119906713    0.4780316198993237    0.3861132512877046 Zr
   0.1402591517891152    0.2231110397905565    0.3529744620070660 Zr
   0.1511210573702636    0.0404659733587627    0.6056385975616342 Zr
   0.3557666194896034    0.2713249813439650    0.6387811661448930 Zr
   0.3592838200262467    0.4673405700086361    0.8985664471259220 Zr
   0.1292301896024355    0.2206241072406683    0.8480277621052839 Zr
   0.1303463838367972    0.5198040920658231    0.1030824427671568 Zr
   0.3663515684983878    0.7669583615665190    0.1475081105514853 Zr
   0.3738060273021052    0.9665211364612515    0.3800096822932031 Zr
   0.1330803759585057    0.7388064373378403    0.3555500547427235 Zr
   0.1365808096517601    0.5223566956308875    0.6205583278858831 Zr
   0.3525300661577015    0.7661369980793282    0.6460213595105238 Zr
   0.3668455468605142    0.9786179266432867    0.8947455751449719 Zr
   0.1356259835982441    0.7226723077475785    0.8712732896349743 Zr
   0.6432277285222749    0.0220008084642097    0.1196433339839517 Zr
   0.8475469143488726    0.2697193727657284    0.1407800122928555 Zr
   0.8812328365386604    0.4851764353193779    0.3834299485109098 Zr
   0.6281122891209686    0.2386598408318223    0.3671855736453124 Zr
   0.6211342904103773    0.0226556150523875    0.6083464657808900 Zr
   0.8602771349441655    0.2861732916234632    0.6320266127777497 Zr
   0.8573908017972987    0.4898562085162413    0.8994413550092769 Zr
   0.6616052574840722    0.2312932667910717    0.8562770284842636 Zr
   0.6299496884812039    0.5385260401167036    0.0859155408464680 Zr
   0.8580193083238230    0.7913765558186081    0.1483301082374694 Zr
   0.8663739108450959    0.9908289272838837    0.4191225995543389 Zr
   0.6452381801974952    0.7124095470434806    0.3623688561954417 Zr
   0.6153050152730424    0.5169545413334010    0.6036591893548517 Zr
   0.8711176414145247    0.7583326173121658    0.6294878682156121 Zr
   0.8828115900868417    0.9694715730951065    0.8917098526764859 Zr
   0.6387700377747780    0.7590140729963872    0.8515821934529849 Zr
