1,1,1,1,1,1,1,1,1,1,1,1,1,1,1,1,1,1,1,1,1,1,1,1,1,1,1,1,1,1,1,1,1,1,1,1,1,1,1,1,1,1,1,1,1,1,1,1,1,1,1,1,1,1,1,1,1,1,1,1,1,1,1,1,1,1,1,1,1,1,1,1,1,1,1,1,1,1,1,1,1,1,1,1,1,1,1,1,1,1,1,1,1,1,1,1
1.0
  10.7644245962562586    0.0000000000000000    0.0000000000000000
   0.1497674053853642   10.3386997983745523   -0.0000000000000000
  -0.1675790095434543    0.2402572548362933   11.0086877563212315
O Zr
64 32
direct
   0.1499636649276490    0.1586424025606020    0.1675210701149245 O
   0.3921833119913324    0.1228658980404490    0.0931657523405619 O
   0.3643354708474313    0.3844623017841253    0.1631523563713283 O
   0.1395024092912928    0.4072779500238798    0.1128194498192432 O
   0.0873386743473918    0.3847718408399382    0.3470347979491301 O
   0.3636310026569720    0.3728405172791896    0.4001467578795284 O
   0.3801112888693508    0.1274129200110550    0.3543270796521790 O
   0.1232326872671053    0.1460473651644820    0.3989887397412920 O
   0.1170050331813121    0.1056850249983903    0.6417294972548822 O
   0.3711103977434173    0.0934375640640822    0.5952423898604386 O
   0.3815493355124476    0.3628265892464237    0.6554821510816805 O
   0.1156504359413873    0.3638483592298943    0.5974623999961578 O
   0.1449353533942098    0.3689678829007000    0.8661577857020076 O
   0.4031442936879390    0.3605278493718490    0.9305466365342046 O
   0.3640987074303237    0.1179317096614008    0.8552726053651238 O
   0.1221362009595803    0.1187264196516781    0.8808792576510092 O
   0.1476125265895984    0.6610825086053458    0.1383471895390507 O
   0.3754148342471756    0.6431729088283382    0.1074381832676523 O
   0.3793126975125891    0.8849549317129608    0.1446354752214428 O
   0.1486207117865645    0.9322367797110005    0.0931196407774732 O
   0.1122998454856296    0.9023395765478336    0.3428809545654132 O
   0.3762891122686551    0.8889410960876246    0.3948833847979611 O
   0.3935466423139709    0.6307253633976042    0.3563569390227628 O
   0.1340801389613972    0.6323506860193556    0.3918609384504485 O
   0.1037816024006289    0.6042689924853830    0.6822420677330403 O
   0.3679897783049514    0.6142538102561738    0.5982962110827452 O
   0.3662538367085160    0.8600452857309168    0.6290996836860339 O
   0.1158289788443607    0.8594165042017943    0.6072570657171549 O
   0.1326944907801677    0.8552139535891776    0.8625677393245630 O
   0.3826555252353383    0.8638228266008330    0.8925906430453284 O
   0.3961888832098633    0.6108382069042382    0.8634804629772281 O
   0.1466984645575505    0.6206338080115863    0.9169546601050355 O
   0.6412943269739885    0.1147266704880505    0.1308039088285666 O
   0.8954491789666461    0.1394111971617290    0.0892892438461234 O
   0.8823612079133406    0.3862826631225629    0.1678576369594036 O
   0.6216439338988737    0.3716945435378367    0.1280638363632831 O
   0.6048259687131100    0.3728919453979052    0.3553310756728358 O
   0.8731866255922967    0.3673474119915419    0.4391105504036374 O
   0.8827978617497014    0.0999354583589946    0.3361448638394844 O
   0.6299355051227928    0.1233947343562162    0.3750544634013435 O
   0.6242473611115857    0.1394034344224201    0.6464119597555014 O
   0.8883472468675605    0.1498404315161512    0.5752594463371579 O
   0.8958509005058304    0.3912867161093578    0.6749203126624854 O
   0.6357070985309722    0.3932138150498567    0.5942459998689339 O
   0.6509016817742612    0.3547019168205491    0.8479641608455851 O
   0.8710479921203443    0.3928227672869500    0.9167274299523260 O
   0.8667231784312930    0.1320783236955869    0.8513516966559806 O
   0.6189095105203164    0.1296097739973152    0.9004210514017196 O
   0.6181342073701157    0.6250925288787750    0.1556452043084000 O
   0.8937860130117481    0.6265228127884577    0.0916924642376555 O
   0.8945622865082592    0.8637762501888144    0.1333234064211906 O
   0.6336528847996430    0.8537817290009360    0.1012468744751158 O
   0.6327485261833399    0.8795588606062542    0.3547007258933160 O
   0.8695070892431005    0.8741327089015142    0.3917744198461350 O
   0.8756590566546864    0.6347726593075091    0.3456856782966563 O
   0.6466321775732696    0.6083929454025448    0.4109054879590505 O
   0.6459917519370060    0.6418280150013221    0.6640950298187994 O
   0.8775861556001678    0.6462353077472777    0.5990320945303749 O
   0.8604373038402608    0.8825193736340048    0.6258233860656123 O
   0.6305351763911706    0.8891380754826718    0.6035282092895186 O
   0.6191938206857230    0.8932251554172372    0.8484899276970137 O
   0.8799285608546457    0.8690442361766720    0.8758412132239473 O
   0.8814762561332130    0.6368026144878020    0.8392733202914907 O
   0.6311387290293190    0.6228228992626559    0.8867473101500827 O
   0.9954516411110012    0.9918031557018437    0.9855800699106868 Zr
   0.9967421957907900    0.2341020079432763    0.2499894553390125 Zr
   0.2470638345514193    0.0110254204150005    0.2606417010013227 Zr
   0.2289058272623091    0.2522968882260612    0.0011770223833045 Zr
   0.0116432467878575    0.0034809542064067    0.4959751356073140 Zr
   0.9921621821881409    0.2364861378943739    0.7398510931716844 Zr
   0.2562859636244498    0.9787714644743455    0.7551211500686541 Zr
   0.2690517811930766    0.2479827482998600    0.5198599727486907 Zr
   0.0083006587390729    0.5148713965733532    0.9992614171914757 Zr
   0.9880673395265878    0.7534910753197869    0.2652290881193742 Zr
   0.2306039255150525    0.4869119661081374    0.2457909265294857 Zr
   0.2404160224479202    0.7724961910686484    0.0226098369314797 Zr
   0.0029655377136712    0.4934413965104365    0.5038996685880871 Zr
   0.9947432915465972    0.7501890019568375    0.7235237980409099 Zr
   0.2544413437464627    0.5126376695947139    0.7548577912683889 Zr
   0.2607155742352879    0.7573782648257704    0.4891335112132756 Zr
   0.5140893010235693    0.9823423225329166    0.9961904823944934 Zr
   0.4985851787296097    0.2443177670842102    0.2302109238900689 Zr
   0.7510526062217830    0.9950052838512097    0.2445901244727274 Zr
   0.7569183227871401    0.2602100261283641    0.0157624319574658 Zr
   0.5054028006624653    0.0072796436802389    0.4832797200234040 Zr
   0.5058540096311350    0.2431950815451243    0.7692065677253557 Zr
   0.7399887682896232    0.9974408419341187    0.7391789102318284 Zr
   0.7329353532804037    0.2517156534516080    0.5064172646734230 Zr
   0.4789833027373543    0.5087669759011825    0.0140419573723705 Zr
   0.4872282975496238    0.7640998229235874    0.2509858453305173 Zr
   0.7511176191269108    0.4992256043539546    0.2639132448489824 Zr
   0.7651836947798600    0.7393405799218833    0.9855135171374392 Zr
   0.4971267549086428    0.4908146810805524    0.4790412595517454 Zr
   0.4994594567450024    0.7401566374311923    0.7434002571378950 Zr
   0.7521607366300824    0.4916365606430069    0.7610129714133695 Zr
   0.7383974076295471    0.7578217110636394    0.4979726693540018 Zr
