2,2,2,2,2,2,2,2,2,2,2,2,2,2,2,2,2,2,2,2,2,2,2,2,2,2,2,2,2,2,2,2,2,2,2,2,2,2,2,2,2,2,2,2,2,2,2,2,2,2,2,2,2,2,2,2,2,2,2,2,2,2,2,2,2,2,2,2,2,2,2,2,2,2,2,2,2,2,2,2,2,2,2,2,2,2,2,2,2,2,2,2,2,2,2,2
1.0
   9.9303655212706197    0.0000000000000000    0.0000000000000000
   0.1733579386721361   10.5566789200155569    0.0000000000000000
   0.2252766644458764   -0.3096359423233769   10.6278229946169915
O Zr
64 32
direct
   0.1134998240249784    0.1355405043437305    0.1341091105320356 O
   0.1722028295389701    0.3461754185770843    0.3311437950352156 O
   0.1157382485920850    0.1133725479687999    0.3876103589593569 O
   0.1724010265950290    0.4037739894952714    0.0688557956009101 O
   0.4256967428804045    0.4021799194902475    0.1712788342280442 O
   0.4148105571621332    0.3342653580272795    0.4365412263311033 O
   0.3613058135344285    0.1023511626460391    0.3644319813062130 O
   0.3715862874380451    0.1470397190577346    0.1152992388865205 O
   0.1345549757415943    0.1478445109391009    0.6322514321233440 O
   0.1861002541478310    0.3450472622382773    0.8170067398561262 O
   0.1237934585355713    0.1000658869047504    0.8795300938145579 O
   0.1758990940350901    0.4082801652862074    0.5784167722696946 O
   0.4163509561136945    0.4063885686311849    0.6689266079704975 O
   0.4356850683248739    0.3502057259057528    0.9258091615172399 O
   0.3758452897328857    0.1050800456891943    0.8681535984625711 O
   0.3787255500514842    0.1353000136642215    0.6024733986859886 O
   0.1284248444707187    0.6453559173274973    0.1332896011645564 O
   0.1851997465125872    0.8351578759592081    0.3110558677420969 O
   0.1209344164697142    0.6070474934264565    0.3750135999459815 O
   0.1861793930148800    0.9122396862469858    0.0560534486885730 O
   0.4374331434752893    0.9135657304051992    0.1927215573535071 O
   0.4338421162422692    0.8306909690145748    0.4348453630193856 O
   0.3759392675566777    0.5982575736220865    0.3699932760916019 O
   0.3682061508403157    0.6476721164185431    0.1209268523432269 O
   0.1216050240431217    0.6430514349552183    0.6269658335554668 O
   0.1741801298204606    0.8411004683250675    0.8185964932899721 O
   0.1194973733790999    0.6071459024180310    0.8791122861504439 O
   0.1773283956556338    0.9060919520404155    0.5555415657176906 O
   0.4237550213993861    0.9075145481829607    0.6796437061906777 O
   0.4369926528573944    0.8435565352476628    0.9430842294961658 O
   0.3821085903364625    0.6070572378080104    0.8652118914247483 O
   0.3734968370792530    0.6476700361984841    0.6213069555773088 O
   0.6233760149503501    0.1525558264309820    0.1445258798888525 O
   0.6525930368044335    0.3537959143891118    0.3181822832966618 O
   0.6229696810363338    0.1082278546780268    0.3807492181088805 O
   0.6834081561084614    0.4058901919616964    0.0646257061533562 O
   0.9244510255577302    0.3944845493912185    0.1813772739324277 O
   0.9263841400340850    0.3394130087443206    0.4350481086899798 O
   0.8728470055325356    0.1057313681075970    0.3774579168971726 O
   0.8752913792697034    0.1354961769663121    0.1047176202467519 O
   0.6206313129550907    0.1455086116936564    0.6274291168828702 O
   0.6684293635688868    0.3476708407878182    0.8127026577103124 O
   0.6261113810776245    0.1109537826075011    0.8822993722843732 O
   0.6888254832368262    0.4147026624104286    0.5656845336759074 O
   0.9242421126297797    0.3966902942194533    0.6805977477291129 O
   0.9407802819864419    0.3454856492912770    0.9322117560875922 O
   0.8770725152237882    0.1114237272420933    0.8548633355675698 O
   0.8775819305573738    0.1389452372228954    0.6141180109798405 O
   0.6315791941423273    0.6460859472991507    0.1353161104516332 O
   0.6791259263470233    0.8431487999043155    0.3238875843475648 O
   0.6216531227784022    0.6101459320082839    0.3914994756600148 O
   0.6829015125000581    0.9145598213037469    0.0656391502806676 O
   0.9290620933904037    0.8981099730591122    0.1864705483337248 O
   0.9407809973554307    0.8270004244726707    0.4321120861183013 O
   0.8638965781150610    0.6041657976642461    0.3601875859749351 O
   0.8757949328218669    0.6361157646500877    0.1199936538128201 O
   0.6255447505190813    0.6457262419407135    0.6307204180851688 O
   0.6749970030469453    0.8479603887620101    0.8233051193581091 O
   0.6241027062508515    0.6115339655890036    0.8832335182242358 O
   0.6815920995721196    0.9072938853043239    0.5836208936055517 O
   0.9321733536940192    0.8990605811346815    0.6708233221338977 O
   0.9142649144877352    0.8533405225409443    0.9277456668871943 O
   0.8675526993381532    0.6165082255650268    0.8644520688718049 O
   0.8782916363628571    0.6367915028312584    0.6049954032407855 O
   0.5012421035187115    0.0138037681431630    0.0285088388236672 Zr
   0.2463679009708232    0.0046252313597370    0.2318221019721443 Zr
   0.2503017177841254    0.2383427004181471    0.4833536856891478 Zr
   0.4899769194171672    0.2370580521367861    0.2663779223867310 Zr
   0.5000367437899029    0.0018512895234673    0.5210549062121982 Zr
   0.2484837009818371    0.0057223849142077    0.7273514676820774 Zr
   0.2571641334253266    0.2441099318489527    0.9726964662317045 Zr
   0.5056787505495801    0.2443424834673633    0.7662757940948836 Zr
   0.5015807190858449    0.5170075304130081    0.0217406388605672 Zr
   0.2441196884966292    0.4988897244437913    0.2358864894691772 Zr
   0.2441207301901939    0.7419966957221524    0.4841286668027938 Zr
   0.4969500080085472    0.7396903974077499    0.2741144697719901 Zr
   0.4896353385145981    0.5070648206521301    0.5194755742917756 Zr
   0.2487359269452482    0.5140517868436492    0.7272254621962240 Zr
   0.2533353515573134    0.7418852597589399    0.9798020387782410 Zr
   0.5099118547095063    0.7496388005410297    0.7687551652147590 Zr
   0.0059878163844698    0.0077477505102568    0.0130239014208373 Zr
   0.7528856233314681    0.0115054577832581    0.2315047197291667 Zr
   0.7359981335987095    0.2393485840479260    0.4912806624220753 Zr
   0.0022906035347809    0.2443140211339811    0.2725559808595957 Zr
   0.0018363523588320    0.0134656405864142    0.5147603163480384 Zr
   0.7548806775700476    0.0088172971955133    0.7406483624432695 Zr
   0.7588498321691076    0.2461611081893090    0.9828811202153872 Zr
   0.0113777194466646    0.2425257815653908    0.7663563239174479 Zr
   0.9991844221933827    0.5067102590113545    0.0228400130415183 Zr
   0.7462599174313664    0.5056402901061102    0.2314033468985742 Zr
   0.7529680731206848    0.7431937109845763    0.4758378847541438 Zr
   0.9962174725493794    0.7363190576313435    0.2660103274331851 Zr
   0.9969757429974212    0.5027329135938422    0.5156736192704635 Zr
   0.7554077794214262    0.5124853256006521    0.7236243580265945 Zr
   0.7532156660614499    0.7379149172619968    0.9871823601328336 Zr
   0.9994497394712774    0.7444369651017261    0.7653388059266536 Zr
