1,1,1,1,1,1,1,1,1,1,1,1,1,1,1,1,1,1,1,1,1,1,1,1,1,1,1,1,1,1,1,1,1,1,1,1,1,1,1,1,1,1,1,1,1,1,1,1,1,1,1,1,1,1,1,1,1,1,1,1,1,1,1,1,1,1,1,1,1,1,1,1,1,1,1,1,1,1,1,1,1,1,1,1,1,1,1,1,1,1,1,1,1,1,1,1
1.0
  10.1421554235045761    0.0000000000000000    0.0000000000000000
  -0.0182510610987819   10.6249408499799571   -0.0000000000000000
   0.2221259088552376    0.3836771150639473   10.1405599195275968
O Zr
64 32
direct
   0.1158576476083008    0.1325748490954975    0.1953093200589524 O
   0.3682753198706425    0.1418182720260625    0.1214545868052398 O
   0.3416498620763629    0.3638930652447938    0.1658002358195547 O
   0.1078017748068200    0.3896444082745052    0.1083099779120644 O
   0.1039013540358920    0.3766047185656087    0.3578000337449834 O
   0.3457371759868760    0.3842527360424942    0.3946835277895040 O
   0.4007003052397666    0.1275316546855322    0.3504351614605465 O
   0.1524789678860825    0.1157028767379013    0.4328498181592008 O
   0.1612259559163563    0.1539896873882472    0.6781519493275043 O
   0.4006146458858811    0.1294132402458820    0.5937038935598014 O
   0.3826514901754756    0.3747727764889724    0.6519895805623327 O
   0.1270858366866277    0.3994942604914780    0.6194914378251265 O
   0.1204881196926115    0.3807475163743325    0.8586132565947711 O
   0.3740748474394818    0.3889289580018961    0.9200177123586898 O
   0.3895665361418875    0.1174851753265120    0.8378777362124020 O
   0.1535166141422604    0.1186561776165804    0.9192280057681713 O
   0.1408263756489911    0.6505151012506616    0.1507776894208449 O
   0.4010955063545379    0.6118194618700441    0.1038530952193279 O
   0.3893280527110682    0.8699646299722491    0.1613872257140846 O
   0.1615423114853891    0.9189384183295848    0.1046447093080669 O
   0.1276630639190420    0.8804024168402134    0.3574385617721250 O
   0.3554322573153855    0.8783816348219375    0.4108534377452886 O
   0.3528683171346835    0.6237796490567826    0.3734615939409019 O
   0.1001672876178850    0.6444926646830169    0.3964288937890595 O
   0.1069471280799522    0.6308767211483658    0.6516738886749611 O
   0.3613846089607720    0.6294944906691110    0.6125900889691098 O
   0.3747533084608759    0.8769059577848157    0.6477396620329812 O
   0.1430321039920959    0.8908041878320716    0.6153311719685282 O
   0.1157564138281535    0.8707501651828897    0.8609661625673549 O
   0.3864779324154601    0.8750993241506899    0.9116552155663087 O
   0.3666205369209805    0.6485021064543073    0.8614611598100944 O
   0.1340914090104240    0.6221793765989293    0.8899583132605187 O
   0.6173717453986149    0.1193726012981942    0.1548101525120846 O
   0.8764815546272924    0.1252694690406757    0.1042508097668485 O
   0.8572773116888074    0.3896249402392239    0.1201775129944474 O
   0.6157374038826722    0.3646386909728071    0.1047152869493096 O
   0.5853039984725061    0.3694375615493629    0.3720281048125543 O
   0.8644619899396139    0.3761579271647423    0.3806700509077836 O
   0.8909540917002537    0.1245686197828449    0.3544027694249275 O
   0.6537273269991256    0.1105000444383017    0.4030860821529882 O
   0.6366859827304622    0.0914064772755708    0.6358931095000520 O
   0.9057478513481940    0.1318447977912175    0.6031069336834912 O
   0.8822655077652359    0.3815262377649940    0.6451559480952974 O
   0.6458369324897458    0.3476226551523610    0.6004421508298381 O
   0.6229542043802830    0.3559773622866633    0.8560829527650400 O
   0.8812181274983806    0.3694200403234120    0.8801861711513661 O
   0.8916627281701446    0.1096648657441456    0.8528297049797305 O
   0.6572987379824466    0.1135380312642020    0.8878762728339991 O
   0.6412025668037474    0.6402476596925109    0.1527366958522103 O
   0.9001760997821586    0.6392479761126125    0.0781810503060400 O
   0.8911205433935749    0.8950199907721688    0.1567214713498814 O
   0.6668069261797573    0.9003581259113203    0.0863461204557223 O
   0.5951645580948532    0.8946705395474375    0.3322003786115326 O
   0.8727904152229146    0.8787865699469436    0.3938995437133692 O
   0.8677034177291965    0.6158308504410422    0.3220610420052764 O
   0.6160985359279204    0.6016736955368481    0.4014570738900234 O
   0.5929714839789906    0.5906012507411190    0.6412493802514732 O
   0.8430442314521663    0.6135774254162050    0.5916466506791762 O
   0.8901315672281743    0.8734727698513348    0.6310032234293121 O
   0.6002350077650441    0.8296142076408292    0.5727375652221937 O
   0.6423735690951702    0.8526994033073904    0.8260235536668685 O
   0.8905209279294951    0.8588133396382360    0.8833573962666650 O
   0.8859858492176106    0.6020786306567180    0.8238499530595141 O
   0.6326337112810686    0.6077759510469087    0.8911867457335629 O
   0.9960113947156993    0.9939964531161511    0.0025872362777008 Zr
   0.9865693978336095    0.2576063558213785    0.2391857231403246 Zr
   0.2610083949069447    0.0034483872595634    0.2571162591307347 Zr
   0.2349377760970788    0.2739040211657461    0.0187978809762686 Zr
   0.0186707843671512    0.9943079416698318    0.4922313661090750 Zr
   0.0075787352606606    0.2542928963005366    0.7495440951404670 Zr
   0.2556624725494474    0.9923124681002611    0.7541116130652720 Zr
   0.2418323806286859    0.2617462334276369    0.5074246341063688 Zr
   0.9922930000664004    0.5000972771395605    0.9807306979813497 Zr
   0.9918841713380078    0.7494974040086818    0.2516512606651883 Zr
   0.2403090069029718    0.4914330282549783    0.2584639105926312 Zr
   0.2497003868920522    0.7625497479397162    0.0180979224477133 Zr
   0.0040851964159502    0.5227736440792602    0.5129697477437053 Zr
   0.9915532147467537    0.7602875623013627    0.7420857551671135 Zr
   0.2629045814966421    0.5074727421308544    0.7782978078657881 Zr
   0.2456928919319715    0.7422903375289095    0.5101657171057872 Zr
   0.5002160321561904    0.0271033636420736    0.0029028423216862 Zr
   0.4996495123442721    0.2531092397881330    0.2374241433516582 Zr
   0.7464136672934704    0.0007786188405815    0.2529540857759160 Zr
   0.7582142165960567    0.2641145198638223    0.9912410440811503 Zr
   0.5055561140968801    0.9939283149969417    0.4889743033174635 Zr
   0.5329408252548214    0.2143600633092299    0.7293770109140640 Zr
   0.7658009097549060    0.9857809424268585    0.7566409631409623 Zr
   0.7815515233101423    0.2424154482660653    0.4810352723823995 Zr
   0.5022630960113711    0.5191457757916517    0.9897913411735534 Zr
   0.4770432303256312    0.7280767253174847    0.2664496753672229 Zr
   0.7131038597480235    0.4863732860051388    0.2454280294234424 Zr
   0.7434613398186171    0.7489669000585848    0.0132550086648728 Zr
   0.4980229580333687    0.4830238106221415    0.5210947603025620 Zr
   0.4934713314938252    0.7540013338628990    0.7222219640452733 Zr
   0.7289041167945330    0.4897032933620692    0.7388859174996180 Zr
   0.7415534724107250    0.7422397206362804    0.4789894745305421 Zr
