2,2,2,2,2,2,2,2,2,2,2,2,2,2,2,2,2,2,2,2,2,2,2,2,2,2,2,2,2,2,2,2,2,2,2,2,2,2,2,2,2,2,2,2,2,2,2,2,2,2,2,2,2,2,2,2,2,2,2,2,2,2,2,2,2,2,2,2,2,2,2,2,2,2,2,2,2,2,2,2,2,2,2,2,2,2,2,2,2,2,2,2,2,2,2,2
1.0
  10.1705958844328173    0.0000000000000000    0.0000000000000000
   0.3062208589171821   10.0912661527716114   -0.0000000000000000
  -0.0117246279464273    0.3869765722619469   11.0199544633216426
O Zr
64 32
direct
   0.1245154688793752    0.1339740762085410    0.1319260388542285 O
   0.1772434273431662    0.3439781663193271    0.3182774954809383 O
   0.1276316570410432    0.1087342501858330    0.3778542168535334 O
   0.1775311551979225    0.4062712253935259    0.0652463183848107 O
   0.4236422940906366    0.4153863844376563    0.1774224721170641 O
   0.4311919477786932    0.3359858413685110    0.4377817129786801 O
   0.3845734175903617    0.1066491767939303    0.3655486593713000 O
   0.3788667066723728    0.1510993070994761    0.1174798073539202 O
   0.1260442326104554    0.1414802418086487    0.6253637253436313 O
   0.1841664072718831    0.3375680505270374    0.8142379160517322 O
   0.1257476609021917    0.1040148681362055    0.8815449545126179 O
   0.1850838357123848    0.4111707983991776    0.5633761385914716 O
   0.4272222611162071    0.4135269567185623    0.6861406651966223 O
   0.4255572440155322    0.3413901713690206    0.9313843584074368 O
   0.3775211513224552    0.1039271315197547    0.8625158982857566 O
   0.3842915715554328    0.1407625422046348    0.6237985115256061 O
   0.1277650814857200    0.6500851225628181    0.1274370700871934 O
   0.1930674227421981    0.8377439019402041    0.3088397585968014 O
   0.1215998106783591    0.6019636798547940    0.3806651550568718 O
   0.1826806797254661    0.9109621672119668    0.0601704181271304 O
   0.4402404054254079    0.9087459460813520    0.1822167097317334 O
   0.4265609625011998    0.8424651171280284    0.4364620414819962 O
   0.3669800163828029    0.6132999890345217    0.3719621490762925 O
   0.3737297988933235    0.6389854237859883    0.1086658806972103 O
   0.1209004576585432    0.6344671487802047    0.6428199834289317 O
   0.1765666869732026    0.8370251073272614    0.8046209996340888 O
   0.1192658878233979    0.6036878229626449    0.8877754725268734 O
   0.1847448386461435    0.9161693262286033    0.5568431958611165 O
   0.4332834282125812    0.9032092954698279    0.6750637673740150 O
   0.4292489281435694    0.8471704779976715    0.9317237566792219 O
   0.3674920224343188    0.6138894211705586    0.8599855798808296 O
   0.3696374274824459    0.6481517597563637    0.6188848208855743 O
   0.6224079232363312    0.1535067513331959    0.1417249789278385 O
   0.6642482357860918    0.3573798309758592    0.3258798271764857 O
   0.6299064795172484    0.1188461285884025    0.3833414716059250 O
   0.6814023360165328    0.4077007089510628    0.0708443041936745 O
   0.9219060856869155    0.4024687718195504    0.1748049340413844 O
   0.9240978709243113    0.3404586508513041    0.4337790886532520 O
   0.8723503721361964    0.1080283822246383    0.3698044103325307 O
   0.8765656321020990    0.1423410027112283    0.1128960345925966 O
   0.6283907718037806    0.1507975219578293    0.6394421173838499 O
   0.6831227763944897    0.3333338154868193    0.8257338474933413 O
   0.6247059917973109    0.1101626368406910    0.8893937765733517 O
   0.6673693288583445    0.4042294134257441    0.5816941649110788 O
   0.9295825492115473    0.4144368977969214    0.6858173835976051 O
   0.9355751337593544    0.3343127437258233    0.9276784705622624 O
   0.8755432787892662    0.0967202609763403    0.8614815867885597 O
   0.8658157165547427    0.1485655570501080    0.6255201519246791 O
   0.6169704115708794    0.6316388519743658    0.1353882804566770 O
   0.6753941745196972    0.8565145103519866    0.3343515114389505 O
   0.6240760225777109    0.6096355742057368    0.3925440946056422 O
   0.6842609681417615    0.9162611163564127    0.0741940134617901 O
   0.9327121208613004    0.8995706267170768    0.1765483793581457 O
   0.9492976438004112    0.8311209234880391    0.4344474567599003 O
   0.8701370093751224    0.6014599127784218    0.3666256326600283 O
   0.8765351042233629    0.6408348801902566    0.1138990607699542 O
   0.6243551035449078    0.6420917279464819    0.6287994218273160 O
   0.6816235956937020    0.8404745988839767    0.8188036760616727 O
   0.6297621934580069    0.6023076310940517    0.8862235312591557 O
   0.6902605183858357    0.9063729156739790    0.5725645409879619 O
   0.9373392928197243    0.9023880814491461    0.6734976055121448 O
   0.9330513403812380    0.8377536248084625    0.9268773768708700 O
   0.8660849133701836    0.6030440660064593    0.8689948027438137 O
   0.8741726924247004    0.6455402382667060    0.6219119121871789 O
   0.5108937658870752    0.0088307222256806    0.0226339172117430 Zr
   0.2543460178971119    0.0050357274658021    0.2406197577426964 Zr
   0.2545081679203450    0.2451001745251774    0.4835862591934612 Zr
   0.5036537300969749    0.2441754946439561    0.2607902539765802 Zr
   0.5088653555365069    0.0163008743797216    0.5173715559602663 Zr
   0.2468428373275957    0.9978532984392625    0.7233758790412644 Zr
   0.2436501880447949    0.2378816597455017    0.9826808995756852 Zr
   0.4965366326728255    0.2415293568316177    0.7719126761560121 Zr
   0.4955146290347081    0.5105812346247136    0.0127020619428048 Zr
   0.2517436283105441    0.5158308473790653    0.2263593420555855 Zr
   0.2498889734406153    0.7461454355424600    0.4861582913551492 Zr
   0.4943103052273633    0.7407025960265419    0.2718443988285801 Zr
   0.4964618342139070    0.5064277309108054    0.5185812548337390 Zr
   0.2461285800622308    0.5077644980394558    0.7354851922733791 Zr
   0.2437581696466243    0.7474427090120903    0.9745941194989970 Zr
   0.5012244434716936    0.7403525095361405    0.7693226312338667 Zr
   0.9954888053822982    0.0047097084716410    0.0063574378581309 Zr
   0.7502874776286298    0.0118998958684570    0.2435662656532393 Zr
   0.7467686718802026    0.2567233647397037    0.4829548646424983 Zr
   0.0032594453653175    0.2393507361213665    0.2649180195541422 Zr
   0.9983854050522423    0.0107722690420569    0.5127697704475597 Zr
   0.7481608296231189    0.0132464612209164    0.7351808714786641 Zr
   0.7517711147417645    0.2430002007593192    0.9843589301393820 Zr
   0.0005875835403121    0.2343286988582627    0.7630892691062255 Zr
   0.9985692731320877    0.5032997348990669    0.0126265031641573 Zr
   0.7545970695663742    0.5093823919766104    0.2274391594667741 Zr
   0.7463619012998320    0.7346198433944549    0.4923878613255597 Zr
   0.0087999592870940    0.7406562612529040    0.2707039068744770 Zr
   0.0007241740178589    0.5041306985167242    0.5104641374810563 Zr
   0.7483660741180672    0.5036880007591389    0.7400765493582384 Zr
   0.7519871622534025    0.7495839758006214    0.9875348636984986 Zr
   0.9886411833435131    0.7296648933518983    0.7658622857191080 Zr
