0,0,0,0,0,0,0,0,0,0,0,0,0,0,0,0,0,0,0,0,0,0,0,0,0,0,0,0,0,0,0,0,0,0,0,0,0,0,0,0,0,0,0,0,0,0,0,0,0,0,0,0,0,0,0,0,0,0,0,0,0,0,0,0,0,0,0,0,0,0,0,0,0,0,0,0,0,0,0,0,0,0,0,0,0,0,0,0,0,0,0,0,0,0,0,0
1.0
  10.1211657233168069   -0.0000000000000000   -0.0000000000000000
   0.3781481835981594   10.4059940621449005    0.0000000000000000
  -1.6053727266774194   -0.2834306305193595   10.2233595548111200
O Zr
64 32
direct
   0.0407582052025994    0.1785692389772529    0.1698368379974364 O
   0.4610486847022248    0.4157015335773374    0.0496214760011317 O
   0.4759751731123809    0.3401453416825728    0.3139292907476436 O
   0.0340169612576636    0.1062428952525829    0.4365432667483300 O
   0.2426699962717415    0.3824909717280169    0.2387022217810558 O
   0.2583804364164008    0.1225157757155707    0.0073875717365783 O
   0.2772252077682787    0.1147084071771336    0.2548802383531293 O
   0.2229201181969591    0.3741586101974494    0.5046788223027849 O
   0.0383874535938578    0.1802012823908478    0.6788160280965697 O
   0.4558066594228949    0.4096507991797637    0.5773378022611322 O
   0.4776595069839082    0.3360157772755157    0.8171897620648979 O
   0.0349077455902200    0.0586549439224503    0.9151906820979320 O
   0.2428106062265658    0.3858140251744755    0.7355802366024615 O
   0.2641618161600190    0.1223445823488834    0.5072129218872810 O
   0.2608926271238129    0.1174532074680574    0.7614093582511990 O
   0.2183195985612339    0.3750602285900079    0.9711032669615837 O
   0.0203836150737235    0.6711210839178428    0.1731253137298759 O
   0.4767786600192271    0.8963611460533909    0.0503014531028593 O
   0.4685571370243001    0.8410400099803853    0.3118200588279023 O
   0.0160889134925325    0.6086060221816535    0.4049699342572414 O
   0.2286965694831647    0.8880420995599532    0.2627790003468810 O
   0.2763994483492228    0.6205543680288478    0.9909870737386166 O
   0.2632594623154779    0.6233067769166570    0.2501585423547445 O
   0.2390522387339536    0.8659220145905239    0.5179913425042242 O
   0.0567029993806409    0.6752801316290459    0.6646377220101144 O
   0.4914138110361591    0.8947671456076545    0.5490217885429443 O
   0.4771045667556524    0.8546850722842066    0.8013582486732133 O
   0.0306610948687878    0.5963599901045752    0.9321325163229145 O
   0.2193449745590176    0.8963554396130222    0.7701408608674787 O
   0.2731495984577699    0.6235483497801451    0.4883327469540648 O
   0.2789105882423048    0.6150980550378442    0.7419069882297739 O
   0.2100498579598567    0.8672649314321546    0.9827411683737479 O
   0.5361735853541603    0.1596495188540087    0.1805227318774564 O
   0.9417575237190140    0.4151736873635843    0.0613673675014936 O
   0.9706890722574052    0.3282569135206492    0.3275260002201754 O
   0.5411148758071868    0.0896671927355131    0.4349051658569143 O
   0.7276940783703227    0.3963509768248578    0.2374040150194875 O
   0.7838433833007378    0.1095526336507476    0.0123162632620844 O
   0.7937034797013314    0.1273424775539878    0.2644680853592410 O
   0.7299675978887908    0.3491425041201023    0.5021843770215370 O
   0.5495889157717802    0.1793453155690647    0.6576207964666670 O
   0.9597850480114063    0.4296851783177984    0.5727180745046362 O
   0.9625954259779325    0.3467457970051525    0.8177666379410109 O
   0.5144914700800289    0.1113102188687227    0.9247048853672698 O
   0.7286149558224628    0.3785173834995481    0.7408721994166365 O
   0.7764188743919509    0.0998326547821645    0.5105533258921394 O
   0.7779546114883369    0.1056142351664948    0.7572702030377756 O
   0.7172733806564912    0.3821409764051567    0.9809413138052622 O
   0.5096125574432288    0.6439907397759201    0.1926465667612320 O
   0.9592827604062978    0.9147330474002054    0.0859762692183078 O
   0.9818222542732035    0.8699555204951598    0.3189134605429845 O
   0.5468956519370148    0.5790666069606798    0.4214585763025728 O
   0.7167859130616571    0.8841426951309277    0.2134830212611379 O
   0.7697089796190583    0.6365723605936966    0.0105502205534033 O
   0.7720959327788801    0.6451833868856364    0.2608406596386473 O
   0.7331537653819569    0.8678279673930238    0.4730044657115007 O
   0.5567122379572832    0.6601960939661249    0.6826539993514822 O
   0.9766716384419832    0.9051148334784710    0.5584604597823403 O
   0.9880430754279758    0.8350900894473597    0.8324425112873017 O
   0.5194104053822992    0.6075160910881232    0.9253856177784394 O
   0.7451115823174373    0.8616973427541113    0.7422449940566719 O
   0.7755749706661378    0.6287126829715971    0.5031681817039485 O
   0.7763763467145732    0.6156763081847257    0.7576488073291778 O
   0.7130723942329023    0.8796317499477357    0.9809035477951819 O
   0.1402470151634854    0.0168494289434480    0.1137920720740505 Zr
   0.3584072892147860    0.2605984422298862    0.1344406406554673 Zr
   0.3744349843131934    0.4651697587006453    0.4028248246108063 Zr
   0.1374983760895287    0.2355471464070742    0.3561677458156535 Zr
   0.1367666169711877    0.0046961951683705    0.6144702921402886 Zr
   0.3591905796270515    0.2674157424812331    0.6487165143261490 Zr
   0.3570536999216158    0.4842768404437611    0.8853300383669446 Zr
   0.1229303543777279    0.2309905496579519    0.8760584817429391 Zr
   0.1322929253086244    0.5414687395882875    0.1105932906241102 Zr
   0.3689603629473114    0.7593874321219756    0.1535672388301328 Zr
   0.3844999072325289    0.9924757589968122    0.3970947760210125 Zr
   0.1289398162965079    0.7548631719005279    0.3569683853271680 Zr
   0.1440155915748889    0.5076228601378220    0.6099487560197824 Zr
   0.3681760701928353    0.7589584976314021    0.6407110633526982 Zr
   0.3474463414403051    0.9693456331682734    0.9021595187033798 Zr
   0.1390116899156782    0.7284584974173931    0.8628205494101854 Zr
   0.6357403683295316    0.0150536105385453    0.0952496197340279 Zr
   0.8629352257468399    0.2605575460336631    0.1329630453289006 Zr
   0.8692630835150487    0.4933881317917380    0.3916970683590501 Zr
   0.6411074139271108    0.2326663424936506    0.3593976842349142 Zr
   0.6547763896947020    0.0096877066709156    0.6091094063369317 Zr
   0.8601262270967304    0.2686939862689078    0.6543464829770034 Zr
   0.8497887373095802    0.4823138231899165    0.8873373020545788 Zr
   0.6258847470005987    0.2272223934625466    0.8464348197582173 Zr
   0.6231892201897119    0.5216759332983196    0.1076588712740755 Zr
   0.8492694003375435    0.7777013179443101    0.1480099697547961 Zr
   0.8675774214337562    0.0004172290147642    0.3946871925776212 Zr
   0.6347014680643184    0.7361041833346148    0.3623528748880476 Zr
   0.6277663217696076    0.5122669557149755    0.6002938743470011 Zr
   0.8858594969717783    0.7645679335786469    0.6421763847198754 Zr
   0.8548871197988677    0.9718089154817906    0.8806281695299656 Zr
   0.6424361314730146    0.7299669011812081    0.8614959064464518 Zr
