1,1,1,1,1,1,1,1,1,1,1,1,1,1,1,1,1,1,1,1,1,1,1,1,1,1,1,1,1,1,1,1,1,1,1,1,1,1,1,1,1,1,1,1,1,1,1,1,1,1,1,1,1,1,1,1,1,1,1,1,1,1,1,1,1,1,1,1,1,1,1,1,1,1,1,1,1,1,1,1,1,1,1,1,1,1,1,1,1,1,1,1,1,1,1,1
1.0
  10.0141048095913909   -0.0000000000000000    0.0000000000000000
  -0.0700265453652308   10.1839652924366071    0.0000000000000000
   0.4086962113958097   -0.2267379065923079   10.6907285327327983
O Zr
64 32
direct
   0.1133587624101404    0.1250470451872338    0.1600335958547308 O
   0.3598839640147087    0.1265124709548268    0.1128610678688306 O
   0.3811306863837433    0.3862713843792324    0.1560883718626650 O
   0.1126162930255603    0.3595766343756106    0.1070345255327044 O
   0.1274198251248890    0.3512865393173913    0.3679613350161867 O
   0.3830868639254676    0.3795306209618046    0.3920743299080423 O
   0.3556613523379189    0.1184428727206329    0.3710328166462236 O
   0.1287418303986284    0.1087946733616214    0.4077357315597032 O
   0.1438712294836697    0.1192058307434826    0.6647641588167175 O
   0.3836166416791074    0.1140885483410730    0.6307885819336375 O
   0.3750670238237379    0.3659564074121362    0.6468247177287887 O
   0.1331498155052194    0.3719605553441022    0.6173555100844836 O
   0.1309126508595005    0.3661232435030289    0.8554923656322712 O
   0.3794974488764831    0.3749909231472215    0.9004480352602552 O
   0.3823726883810113    0.1280247279070777    0.8621620597865732 O
   0.1295925968906010    0.1015152537694416    0.9011219831374219 O
   0.1308980161151164    0.6329770811585805    0.1510017382685652 O
   0.4009246664315289    0.6306696697474784    0.0931162112153578 O
   0.3728464452248420    0.8847278622793846    0.1643392146681788 O
   0.1118845557893965    0.8641904371964306    0.0809569486635127 O
   0.1350357462700330    0.8634128444287479    0.3371107732055323 O
   0.3657427401457780    0.8715595189823387    0.4139771581187727 O
   0.3747548159361609    0.6337878460193502    0.3525981911483838 O
   0.1283144958543755    0.5978175948162580    0.3991617761534509 O
   0.1502363677829493    0.6259182559650098    0.6667037903896744 O
   0.3937263233307493    0.6471835156786966    0.5987249139291170 O
   0.3921301605048840    0.8877435953346956    0.6534093319376770 O
   0.1424887339346950    0.8730522629429130    0.5986685126185651 O
   0.1213912859560239    0.8576028507841839    0.8474719078461186 O
   0.3832449191677902    0.8630928313490319    0.9029038822233143 O
   0.3758855938749143    0.6191277344176549    0.8462769647923419 O
   0.1413901524250223    0.6095039262963901    0.9007042310463155 O
   0.6155607593089134    0.1230664763967669    0.1494167657993719 O
   0.8759460398022075    0.1381724598933640    0.1020979767897059 O
   0.8850303136674279    0.3949624714354217    0.1503861036109412 O
   0.6454800313950491    0.3832839451541413    0.1034105022417401 O
   0.6304257573334147    0.3724630149175376    0.3363182869709357 O
   0.8663202803758162    0.4050184923517968    0.4007888106204419 O
   0.8702433676099933    0.1417560210491881    0.3494358938459606 O
   0.6177471901709656    0.1202068472866284    0.3979677890494928 O
   0.6580805465878692    0.1397325236749229    0.6486352954401892 O
   0.8948433978166508    0.1333527506332756    0.5893670758834036 O
   0.8758211566450194    0.3891475995400552    0.6710132330211042 O
   0.6286744662205855    0.3924209041003109    0.6102929186559555 O
   0.6270744007944358    0.3733352456992868    0.8501552719697295 O
   0.8811277150727597    0.3753109362322437    0.9100142713766125 O
   0.8660402689309571    0.1225776759224090    0.8521599084390199 O
   0.6080043527852416    0.1127021501923576    0.8893178576642496 O
   0.6336463768200483    0.6305447865908168    0.1338452238702789 O
   0.8827307074470306    0.6278558961616550    0.0865331265374037 O
   0.8562701133607263    0.8677632662093093    0.1437632512222368 O
   0.6071379759027359    0.8798515653380248    0.0822569511149310 O
   0.6239201254824891    0.8791773914302593    0.3573731835956900 O
   0.8737625358878173    0.8972913027887075    0.3917846757099659 O
   0.8574526007368511    0.6536169494549413    0.3270216300035743 O
   0.6272763602727612    0.6301633075789593    0.3955301052171695 O
   0.6519651745989816    0.6435619041903793    0.6349584552180922 O
   0.8954239093644794    0.6263133940708135    0.5795475118397954 O
   0.8833385371812136    0.8741869434840559    0.6465780814783285 O
   0.6487016265284982    0.8917203433013738    0.5925475363165627 O
   0.6223307922074461    0.8657905026207312    0.8450428275995769 O
   0.8612869038497888    0.8719741700873941    0.8942974243642182 O
   0.8793998395554898    0.6322560760762002    0.8444663870715875 O
   0.6168037369553891    0.6147695074433276    0.8876439814410148 O
   0.9757910977623859    0.9964675733373405    0.0052078632274248 Zr
   0.0003960062268715    0.2679309360490926    0.2381771359083523 Zr
   0.2330407290031667    0.0043205080708814    0.2384753936922103 Zr
   0.2446821806014012    0.2515897801051277    0.9837432138043101 Zr
   0.0077174089154661    0.9981715250218195    0.5151926586795560 Zr
   0.9963470601895151    0.2503682667374205    0.7559603008490303 Zr
   0.2515770966514073    0.9858880959667919    0.7580471493955716 Zr
   0.2561031353694257    0.2371082123889484    0.5063175776212826 Zr
   0.9911858735510514    0.5101476688040478    0.9996789743914747 Zr
   0.9969422064669013    0.7604193650547626    0.2232871894923892 Zr
   0.2476081538878700    0.4824801961012294    0.2635883169301341 Zr
   0.2448236497926105    0.7355695685359463    0.9978913395786100 Zr
   0.0133480684011397    0.4823406782075726    0.5109501328534507 Zr
   0.0168058390490595    0.7492140288491030    0.7329734202966364 Zr
   0.2638985760534733    0.4959109891524008    0.7581876747017189 Zr
   0.2478920679377737    0.7410341822047785    0.4790556687899395 Zr
   0.4927098826616181    0.9973207106529668    0.9984744717833902 Zr
   0.4924396277039683    0.2442431382511880    0.2654696352741944 Zr
   0.7459416999303702    0.0222529885988996    0.2697580469160791 Zr
   0.7456216868484122    0.2440372761757267    0.9963331338352880 Zr
   0.4918591161647315    0.9988739927690261    0.5105457641252800 Zr
   0.5033786115488369    0.2471983810393421    0.7405101651268227 Zr
   0.7426069294433715    0.9969129369821496    0.7580069993161186 Zr
   0.7533517590074176    0.2567138920496909    0.5058854862174221 Zr
   0.5101340097081196    0.4886970356596619    0.9987803772125654 Zr
   0.5090461603476318    0.7555479463642624    0.2460637600651484 Zr
   0.7509370261313527    0.5097320420542277    0.2424253974520762 Zr
   0.7392145956194608    0.7523078138875230    0.9949756785266468 Zr
   0.5108140375105350    0.5008868023485968    0.5043244126059370 Zr
   0.4900824581578491    0.7514277779039238    0.7507599086746546 Zr
   0.7409541789401248    0.5202163731685580    0.7632198188942577 Zr
   0.7561333361493967    0.7534298109763755    0.4851192878315718 Zr
