0,0,0,0,0,0,0,0,0,0,0,0,0,0,0,0,0,0,0,0,0,0,0,0,0,0,0,0,0,0,0,0,0,0,0,0,0,0,0,0,0,0,0,0,0,0,0,0,0,0,0,0,0,0,0,0,0,0,0,0,0,0,0,0,0,0,0,0,0,0,0,0,0,0,0,0,0,0,0,0,0,0,0,0,0,0,0,0,0,0,0,0,0,0,0,0
1.0
   9.8976804865194836   -0.0000000000000000   -0.0000000000000000
   0.4799407352960861   10.2006686621380087   -0.0000000000000000
  -1.6589056686294879   -0.1105548153817803   10.8472659564665950
O Zr
64 32
direct
   0.0274897373901323    0.1655115983277525    0.1563933585576620 O
   0.4699729475090236    0.4186116572831554    0.0849225646256825 O
   0.4585991674956070    0.3265014684021615    0.3293532954329571 O
   0.0375933818382746    0.0839102305881670    0.4234114835418016 O
   0.2043066399906070    0.3633243654655730    0.2295863459967402 O
   0.2660785861731273    0.1290970071743562    0.0193935040446381 O
   0.2600560131004889    0.1165301525129216    0.2543419898592302 O
   0.2463620870870609    0.3512726631267183    0.4953932059254519 O
   0.0443640121066225    0.1616346001224677    0.6654855035702868 O
   0.4813478106286069    0.3967882786065196    0.5575901038080744 O
   0.5180011334053295    0.3628311548228091    0.8251167896518942 O
   0.0194366492422019    0.0799903030203562    0.8937725051002678 O
   0.2484035577856957    0.3903965738901961    0.7188985989737972 O
   0.2869656720437495    0.1103101652352327    0.5162678770092758 O
   0.2786894338725655    0.1315163151121035    0.7646084653299745 O
   0.2590338680780837    0.3716593392205886    0.9620333045746814 O
   0.0145207882203750    0.6642181579411124    0.1506239866208845 O
   0.4418190141090507    0.9152976750147047    0.0921946060429923 O
   0.4642511102708443    0.8246604401827347    0.3460619344787206 O
   0.0474180902990572    0.5710442749234426    0.3981539081122373 O
   0.2082245331963242    0.8726373389724627    0.2330174744441636 O
   0.2852155466840338    0.6378013377455688    0.9973200410146424 O
   0.2617906183240005    0.6293175422227265    0.2475005678458095 O
   0.2116120417409224    0.8779815673052928    0.4710514188465990 O
   0.0450126143301100    0.6702874154690073    0.6506699988758349 O
   0.4674183548543333    0.9147491331983586    0.5717483622592231 O
   0.4915450135253740    0.8739795969588063    0.8188587447148166 O
   0.0575028338700538    0.5642213686260832    0.9183103296053748 O
   0.2229544559208376    0.8753275788636159    0.7416086349209792 O
   0.2694665826499147    0.6521349740763333    0.4982987267844857 O
   0.2772837337764856    0.6185890181561571    0.7444573333509811 O
   0.2126505046761683    0.8627635861624067    0.9754244600587419 O
   0.5187625790871746    0.1575753906342818    0.1932171420440321 O
   0.9581234130889439    0.3910252505195898    0.0680999018798489 O
   0.9576685838947189    0.3391074364777267    0.2957835437866523 O
   0.5417617599949803    0.0954965786633854    0.4441554630019767 O
   0.6854913142574584    0.3899243509347048    0.2517063755934109 O
   0.7605171863414772    0.1108110077666482    0.0040303920154126 O
   0.7799047991473965    0.1275782618098021    0.2733945546280322 O
   0.7310227824822109    0.3752425097967383    0.4894950364552124 O
   0.5211293248026142    0.1507610702176340    0.6921645870887910 O
   0.9807765304080632    0.3928473633557245    0.5408227482430924 O
   0.9720247616580321    0.3320164601825026    0.8424144880169042 O
   0.5190698608227513    0.0819243183918386    0.9210927351738497 O
   0.7388966503730238    0.3746701183357474    0.7360883346959899 O
   0.7704171206548155    0.1331552626778346    0.5155661198447931 O
   0.7618880208770038    0.1224687139814889    0.7512116276122297 O
   0.7083751276458361    0.3710697760039096    0.0091400175212718 O
   0.5407171005040099    0.6822513511139661    0.1812456005679439 O
   0.9397857077285158    0.9089240960321349    0.0605896797347530 O
   0.9459365944643067    0.8370050161552892    0.3191366203790987 O
   0.5367339286044877    0.5705959016026930    0.4220581623861376 O
   0.7085083702163816    0.8605045478359168    0.2165740067891950 O
   0.7926885159800748    0.6056357992526922    0.0080310713086247 O
   0.7715934238449723    0.6293337599781471    0.2501286057877579 O
   0.7060272902378170    0.8969496665387950    0.4822416517391223 O
   0.5203514605756987    0.6190392994435265    0.7044666457674987 O
   0.9507085358957146    0.9386646026765940    0.5827766511921301 O
   0.9674302509067696    0.8196606007131848    0.8352217139102190 O
   0.5467297396829607    0.6008572844853323    0.9453956935836454 O
   0.7258496043187487    0.8742724705930963    0.7465417699261275 O
   0.7887041850294570    0.6336743952686041    0.5132742813575860 O
   0.7726282431758839    0.6203462599591001    0.7445482492558697 O
   0.7155839049430704    0.8699308813157834    0.9831428417538166 O
   0.1305897024703808    0.0233454894440307    0.0934079545819533 Zr
   0.3634973008466036    0.2633237602097108    0.1523513888506445 Zr
   0.3625212704951055    0.4782672499742469    0.4082711438968523 Zr
   0.1308854151044226    0.2256546777581767    0.3681118830703666 Zr
   0.1438987930566004    0.0174754241563973    0.6040547616050497 Zr
   0.3741477063317650    0.2656829670369416    0.6463022471778361 Zr
   0.3911716142811201    0.4774353743740907    0.8918964174776657 Zr
   0.1392608451532947    0.2250937341219196    0.8381878453786578 Zr
   0.1330436966402423    0.5169237077168968    0.1004317766312855 Zr
   0.3566424834128312    0.7653158468455918    0.1535266663584666 Zr
   0.3770788639254775    0.9868761819755436    0.4046136727184722 Zr
   0.1221084620553096    0.7397232703638920    0.3263862169240345 Zr
   0.1355228026765344    0.5269558221607377    0.5862844899371842 Zr
   0.3612704231972980    0.7523092047446827    0.6498631201992054 Zr
   0.3589247177105575    0.9740069138208445    0.9092452560380231 Zr
   0.1389380523026640    0.7155149272482532    0.8489481217900993 Zr
   0.6221461820045453    0.0279898738116510    0.1179918052656388 Zr
   0.8501759932271929    0.2688673715708946    0.1441045584457284 Zr
   0.8570662239142072    0.5029945613543281    0.3852845720546310 Zr
   0.6539509061854388    0.2412990905438036    0.3666468111099501 Zr
   0.6339999784400140    0.0221135122111774    0.6221574445657212 Zr
   0.8754814518395523    0.2717932459507922    0.6333798768439147 Zr
   0.8621903265057429    0.4776051838453764    0.8913442927465088 Zr
   0.6447137938228116    0.2292283084808717    0.8717661203893173 Zr
   0.6399933005216134    0.5246948758687977    0.1356787373524866 Zr
   0.8452369493029127    0.7670759506112703    0.1281251407384795 Zr
   0.8618271497118526    0.9752470953318155    0.3961840634540760 Zr
   0.6486779354453952    0.7497897283018917    0.3543902103836868 Zr
   0.6349611339472985    0.5137135455717680    0.6053124316534058 Zr
   0.8693787191380037    0.7922239697170074    0.6434762777286658 Zr
   0.8446365261265779    0.9751230771806785    0.9028858777415154 Zr
   0.6498854706404834    0.7241933358798064    0.8587424166959657 Zr
