0,0,0,0,0,0,0,0,0,0,0,0,0,0,0,0,0,0,0,0,0,0,0,0,0,0,0,0,0,0,0,0,0,0,0,0,0,0,0,0,0,0,0,0,0,0,0,0,0,0,0,0,0,0,0,0,0,0,0,0,0,0,0,0,0,0,0,0,0,0,0,0,0,0,0,0,0,0,0,0,0,0,0,0,0,0,0,0,0,0,0,0,0,0,0,0
1.0
  10.6427517771236069   -0.0000000000000000    0.0000000000000000
  -0.3380255781214246   10.2876049827626090    0.0000000000000000
  -1.7387503131290851    0.1795763421482382   10.8406733934944892
O Zr
64 32
direct
   0.0259086186757007    0.1579739263023772    0.1867646646761814 O
   0.4548742706106273    0.4198343180120898    0.0740375119853396 O
   0.4631016492838851    0.3252425854001221    0.3436373271272554 O
   0.0358371603968082    0.0971936088457516    0.4344515391752627 O
   0.2382071312421546    0.3739702381867940    0.2285254590537406 O
   0.2659554086575015    0.1334320241623199    0.0127626537003714 O
   0.2631187571796141    0.1167809840487346    0.2611013307622198 O
   0.2256313552097438    0.3669324164394748    0.4768092014562386 O
   0.0244442878823859    0.1539595627356528    0.6848062611456420 O
   0.4688776920775214    0.4208367121543061    0.5880005598107257 O
   0.4604609758427329    0.3346595374715829    0.8205224274848015 O
   0.0276516558122138    0.0871687099933083    0.9306540601762230 O
   0.2173566077596371    0.3763981957378904    0.7218101703899449 O
   0.2800253140643135    0.1239260342127812    0.5097101190702715 O
   0.2740713021508069    0.1215057358307641    0.7532902002287549 O
   0.2195737094680529    0.3812052836092191    0.9726001877362399 O
   0.0359805822733861    0.6636152340165461    0.1721204916218333 O
   0.4558835906966882    0.9107374638365930    0.0769947643474704 O
   0.4688765023004597    0.8290686693297705    0.3287194312152682 O
   0.0267303124339846    0.6024356822187970    0.4207150235276866 O
   0.2266137383442207    0.8879198328108867    0.2546137187894981 O
   0.2653260227385880    0.6359943446890447    0.0055045974114311 O
   0.2868768874797478    0.6319244521278432    0.2510505694722998 O
   0.2420665995576491    0.8847585095335531    0.5013938863209202 O
   0.0283565388523427    0.6554505565790838    0.6784526593259124 O
   0.4602341367786764    0.9123382308013847    0.5744674354581335 O
   0.4604031354745186    0.8323075417176103    0.8368079872735454 O
   0.0176321849733663    0.5906616199361384    0.9348577970240970 O
   0.2240818180522894    0.8749576414620248    0.7453151706284828 O
   0.2708335648031973    0.6351135399063279    0.5131858291421764 O
   0.2582336014556852    0.6180891151635736    0.7463416313561604 O
   0.2158859880503174    0.8835311272106007    0.9982902187325732 O
   0.5308668663829210    0.1655957599223353    0.1844655827284717 O
   0.9662047516544937    0.4122019530282286    0.0869853636367169 O
   0.9626867028183484    0.3294436412851455    0.3263927869022741 O
   0.5296615314675310    0.0806632964483005    0.4133549199433574 O
   0.7176481620816846    0.3737155707134365    0.2391854437987241 O
   0.7721513413995224    0.1203022884196237    0.0146317626537100 O
   0.7706277457927185    0.1182103770444950    0.2574383866480811 O
   0.7288622453707857    0.3637232233385230    0.4971150657609505 O
   0.5291642398293959    0.1648901586919853    0.6751955473718535 O
   0.9636779131654780    0.4175317794017028    0.5749626077140582 O
   0.9682287773572642    0.3511392036042642    0.8334415762513390 O
   0.5307626369652773    0.0779833521336210    0.9221524942351895 O
   0.7282280634890855    0.3786739272370773    0.7521078695436803 O
   0.7906070040522958    0.1177402953597298    0.5106710003570605 O
   0.7632485314881857    0.1218465689884986    0.7570595921213767 O
   0.7332516438628103    0.3568625199464293    0.9849064103994978 O
   0.5508980504924382    0.6864051005445061    0.1635504949779208 O
   0.9702560023112254    0.9179179376711540    0.0836828212852902 O
   0.9740679258050216    0.8525603074959590    0.3183160616545102 O
   0.5428323868375017    0.5809967021651795    0.4098716064507970 O
   0.7300904641710598    0.8733683632528086    0.2394087940475613 O
   0.7540472429158694    0.6293758626144101    0.0078286945856085 O
   0.7695801643438858    0.6163054854639626    0.2658068928567860 O
   0.7366379771247978    0.8792678405448909    0.4871583967070914 O
   0.5406520422769838    0.6691729207586437    0.6743268574521247 O
   0.9903871189437407    0.8918518602769543    0.5658556200282890 O
   0.9645706861596522    0.8360097940290301    0.8382602391151560 O
   0.5286392585757013    0.5816601779425461    0.9191615017273388 O
   0.7180461434730309    0.8894239027275296    0.7386640852869331 O
   0.7950398145343063    0.6307123881487907    0.5200032391422185 O
   0.7628718681420865    0.6261886896366309    0.7626699603422751 O
   0.7260933562317969    0.8769538131877083    0.0004666956485412 O
   0.1285860068816302    0.0164799130936562    0.1068689534079347 Zr
   0.3582427931369060    0.2628433104438704    0.1466842245292858 Zr
   0.3811360996906994    0.4757510611861199    0.3947835841792142 Zr
   0.1339716756723653    0.2214923977741218    0.3475435804533091 Zr
   0.1435909092654043    0.0199983452707099    0.6043935178078410 Zr
   0.3551621592583585    0.2739567691437454    0.6338586432576757 Zr
   0.3576855088637639    0.4714178845830427    0.8800837616439395 Zr
   0.1311357943814809    0.2235613316371563    0.8597693434979083 Zr
   0.1378678371091059    0.5250665554300373    0.1092412181987394 Zr
   0.3674228119954577    0.7713261709999040    0.1438148866227802 Zr
   0.3636346833835795    0.9819151073907818    0.3939396053535547 Zr
   0.1427175357370303    0.7370370149859319    0.3546518209936286 Zr
   0.1319038583373305    0.5213480273888100    0.5875681157060253 Zr
   0.3601160843249980    0.7702692052588009    0.6480808268991940 Zr
   0.3532752542191638    0.9735666098293113    0.8955348468782309 Zr
   0.1393114907515307    0.7289393553009786    0.8642306459598961 Zr
   0.6313192662640151    0.0178817330622994    0.0975804342500357 Zr
   0.8613749311805038    0.2635106158166767    0.1501114628521648 Zr
   0.8635929214405927    0.4823590119029805    0.3986936392063712 Zr
   0.6377505883698631    0.2292836905730776    0.3515638849692772 Zr
   0.6343727324922890    0.0239240539171349    0.5980199570250336 Zr
   0.8742771213251949    0.2772607444923246    0.6473965197504838 Zr
   0.8541505866745095    0.4817615964845967    0.9022353544079191 Zr
   0.6413398750123239    0.2292923071431659    0.8537426884342841 Zr
   0.6241112690698929    0.5175864164984746    0.0974454736671554 Zr
   0.8665008131416202    0.7701983579137075    0.1558910070027708 Zr
   0.8678610323740088    0.9842990247058842    0.3925709910561345 Zr
   0.6507628367112288    0.7370398871747976    0.3562884555970331 Zr
   0.6477227268849675    0.5186711467397573    0.6120454023623355 Zr
   0.8818368309327471    0.7751050150248889    0.6533328842883749 Zr
   0.8509652236514273    0.9806513439976090    0.8942831350511646 Zr
   0.6386277413988225    0.7311863649155558    0.8566253323038756 Zr
