1,1,1,1,1,1,1,1,1,1,1,1,1,1,1,1,1,1,1,1,1,1,1,1,1,1,1,1,1,1,1,1,1,1,1,1,1,1,1,1,1,1,1,1,1,1,1,1,1,1,1,1,1,1,1,1,1,1,1,1,1,1,1,1,1,1,1,1,1,1,1,1,1,1,1,1,1,1,1,1,1,1,1,1,1,1,1,1,1,1,1,1,1,1,1,1
1.0
   9.8707207793799814   -0.0000000000000000    0.0000000000000000
  -0.2302720156930655   10.7189767544007513    0.0000000000000000
   0.0960740793307970    0.2026844892250259   10.9600294622537344
O Zr
64 32
direct
   0.1050935156700623    0.0843360538873615    0.1656001080882844 O
   0.4050695496599753    0.1531013514915884    0.0906748329119585 O
   0.3640391486615159    0.4015765701540246    0.1272250022960494 O
   0.1420935258837328    0.3539060209239682    0.0819564621695179 O
   0.1554706881175662    0.3474334504648235    0.3402626941509278 O
   0.3726727943527405    0.3672986816724266    0.4071650067884359 O
   0.3630511178492969    0.1338115029269538    0.3332886809091529 O
   0.1132749919634819    0.1130618872762873    0.3828394815680706 O
   0.1273515250153727    0.1464708898393524    0.6556868348620530 O
   0.3953326029030318    0.1131200067386820    0.5901872973496436 O
   0.3719162727244786    0.3735155265086454    0.6472768278800968 O
   0.1359977632597449    0.3864742286322880    0.6051204933564311 O
   0.1391739917076468    0.3772797301606623    0.8430493761738476 O
   0.3902442442279473    0.3853515544113842    0.8757013872685705 O
   0.3836457482759970    0.1183168550563675    0.8421856919079793 O
   0.1321328192146505    0.1417554643665496    0.8982388013102666 O
   0.1202706375500091    0.6046198074254426    0.1565133902338307 O
   0.3948666785696052    0.6356497867829287    0.1187637437182891 O
   0.3696447705173455    0.8888985503708738    0.1500072850681848 O
   0.1221236796450896    0.8408695978027044    0.0834015673085641 O
   0.1140150464105469    0.8407737006980490    0.3267265786312626 O
   0.3845940641202449    0.8687078501842708    0.3983820020865302 O
   0.3734980906710848    0.6104482205414271    0.3495572656893379 O
   0.1007478268187811    0.6041180427547729    0.3929635696448543 O
   0.1180107592443296    0.6451949393238898    0.6465403234913266 O
   0.3699121200278103    0.6259854893476875    0.5748830018294828 O
   0.4118181875499351    0.9020035198004903    0.6659760669748297 O
   0.1431106164296765    0.8950960220522864    0.5986400139886873 O
   0.1274735758854814    0.8917570591082834    0.8574045681048413 O
   0.3843209026652664    0.8747280575174088    0.8943180543407449 O
   0.1290166475287666    0.6107659402544009    0.9001028407793539 O
   0.8899679484256393    0.6166611907472328    0.8616726869781625 O
   0.6523707552358878    0.1505285967596297    0.1481071796650267 O
   0.9059672669261600    0.1453947111780413    0.0947943221665719 O
   0.8928826393110453    0.3622190409296987    0.1687368954772601 O
   0.6394895457281651    0.4015058581407207    0.1101069697993173 O
   0.6152643864067331    0.3779296994524380    0.3418543408850975 O
   0.8933689054567753    0.3958159630709087    0.4014836726447232 O
   0.8498209632082853    0.1721577535583796    0.3337005918730375 O
   0.6071412233007795    0.1373461347191109    0.3901864925206709 O
   0.6366397549069120    0.1191431200435592    0.6464957156185390 O
   0.8865543988418969    0.1516967978897205    0.5722909999012181 O
   0.8834779421275384    0.4180815279503392    0.6399487990023820 O
   0.6190150288557879    0.3638754455193682    0.5774446324342811 O
   0.6177257455087692    0.3904176339567886    0.8572546097305814 O
   0.8781609802531085    0.3677704179563097    0.9129660418396738 O
   0.8685644888470589    0.1382402057353143    0.8516881171303459 O
   0.6215257894985780    0.1356674510014366    0.8802504408155257 O
   0.6319776056024207    0.6432033791857181    0.1734131289013135 O
   0.8562208843415989    0.5912087421707276    0.0916275431063938 O
   0.8722424819760624    0.8592537514645937    0.1457856722651034 O
   0.6492187432252428    0.8869970753922187    0.0980746140237990 O
   0.6597209295334675    0.8794066740002741    0.3554208277191050 O
   0.8718201472335100    0.9126054778410085    0.4004216257186554 O
   0.8597003026411968    0.6624622307022666    0.3399978942514389 O
   0.6328881438025415    0.6375512617628650    0.4170603608998015 O
   0.6392938768806128    0.6216672135106263    0.6719857909565804 O
   0.9017109851894800    0.6739417925834010    0.5895599398663741 O
   0.8744393975379694    0.8860952551162496    0.6594652162836194 O
   0.6454894112552939    0.8749992816585229    0.6023244341573623 O
   0.6268940902273148    0.8815057551419050    0.8601284954266445 O
   0.8851324094021626    0.8701220903596983    0.9145918563013382 O
   0.6137736222743297    0.6449585868541898    0.9063726191441530 O
   0.3595145487501646    0.6464609748823700    0.8302905765117119 O
   0.0218571507425703    0.9993768620205410    0.0080156494562867 Zr
   0.0111380432342403    0.2406021348860534    0.2525522342282841 Zr
   0.2371672748371995    0.9724404299208355    0.2619417161228738 Zr
   0.2707951940231738    0.2626604070258576    0.9957848218188792 Zr
   0.9942429764405617    0.0132275927816879    0.5161894862129911 Zr
   0.0036609747870576    0.2571652121423786    0.7796065461618726 Zr
   0.2492716209115730    0.9774464526838000    0.7361774637091945 Zr
   0.2738377477286899    0.2575982021162605    0.5308303583158115 Zr
   0.0110315683892986    0.4754628701852627    0.0213158605279844 Zr
   0.9776014379140009    0.7259073698618213    0.2126481225462644 Zr
   0.2646781209303616    0.4835182272585542    0.2657219957601403 Zr
   0.2691513819786712    0.7407898260860579    0.0085855661359372 Zr
   0.0110187821055542    0.5067340453030520    0.5215908347863577 Zr
   0.9977785768941260    0.7504899638622405    0.7622825581786363 Zr
   0.2350023249769629    0.4998933849305974    0.7483127023194609 Zr
   0.2251762617130852    0.7476023953878608    0.4905076919468906 Zr
   0.4916791680136037    0.0131628089645792    0.9811021891531353 Zr
   0.4987494002448253    0.2427496489118354    0.2514987292318089 Zr
   0.7558466406954913    0.9921894222112295    0.2333974254092912 Zr
   0.7653414230461059    0.2540897240869842    0.0161737501081086 Zr
   0.5238850977638503    0.9892640760876489    0.4942063486740108 Zr
   0.4966348205781743    0.2329700812149842    0.7426028950771061 Zr
   0.7483957260027242    0.0126746442488998    0.7576196122006159 Zr
   0.7433451449852071    0.2546157051945728    0.4660654269855962 Zr
   0.5105650863272637    0.4961136827543307    0.0089101900351935 Zr
   0.5095567137131338    0.7571397986707459    0.2543488873456701 Zr
   0.7513540064881119    0.4973177242266962    0.2713046231253973 Zr
   0.7466221138336619    0.7687230069240145    0.9759485566200723 Zr
   0.4965805757436106    0.5104875937204177    0.4834881217381642 Zr
   0.5034435152450507    0.7421662886220608    0.7358376846225756 Zr
   0.7535325175538251    0.4894202583572607    0.7569125300229003 Zr
   0.7741804241544040    0.7740380314744920    0.4855087632954038 Zr
