2,2,2,2,2,2,2,2,2,2,2,2,2,2,2,2,2,2,2,2,2,2,2,2,2,2,2,2,2,2,2,2,2,2,2,2,2,2,2,2,2,2,2,2,2,2,2,2,2,2,2,2,2,2,2,2,2,2,2,2,2,2,2,2,2,2,2,2,2,2,2,2,2,2,2,2,2,2,2,2,2,2,2,2,2,2,2,2,2,2,2,2,2,2,2,2
1.0
  10.5589682773741913   -0.0000000000000000    0.0000000000000000
  -0.4655045469256587   10.3594761862171403    0.0000000000000001
  -0.3215433149742857    0.4072770231599471   10.7161583791596087
O Zr
64 32
direct
   0.1244933565154140    0.1562508125531057    0.1257051283713522 O
   0.1812618990810058    0.3338639271177682    0.3242882153326787 O
   0.1228585460987725    0.0977316241632600    0.3812673404347737 O
   0.1777867287302615    0.4074711135574000    0.0707446121246533 O
   0.4137374187758546    0.3973223554475002    0.1893507229835407 O
   0.4189113256989064    0.3413934175535416    0.4304002157125364 O
   0.3713474860615345    0.1007012566282694    0.3698457402988491 O
   0.3806335215344212    0.1384070204335677    0.1144730511715526 O
   0.1119719439135582    0.1512980337193647    0.6308292561396562 O
   0.1804942177663080    0.3396570413385956    0.8165001450161640 O
   0.1490095783666898    0.1056006003355527    0.8808318126817610 O
   0.1608279617983560    0.4006618229649057    0.5773648339998884 O
   0.4102271924453742    0.4050961460044225    0.6664453551366861 O
   0.4257487223219752    0.3390874481533615    0.9372878544641003 O
   0.3822392787772717    0.0957595171664870    0.8622642499825240 O
   0.3843630984140845    0.1483575739533562    0.6213966992826599 O
   0.1298477655678468    0.6524231992418039    0.1328757289057226 O
   0.1856412412386245    0.8342390890217684    0.3139525816493058 O
   0.1127622331000242    0.6083822403539768    0.3774721435124240 O
   0.1741318881823287    0.9207423319601348    0.0474349958832788 O
   0.4246976775377757    0.9094721730828143    0.1878970820098972 O
   0.4261333654878909    0.8350057139537508    0.4216129844708697 O
   0.3683711707504975    0.6038414757910164    0.3672132666173419 O
   0.3826984560829026    0.6299341867232252    0.1224709193503842 O
   0.1141193608110295    0.6346196961042108    0.6356251342035665 O
   0.1932995283374837    0.8378958348966119    0.8089666080392374 O
   0.1227054835106688    0.6101558659413061    0.8852751780665616 O
   0.1844158724884558    0.9126165331203803    0.5595240917921390 O
   0.4330590320948046    0.9031112452473573    0.6879183045517960 O
   0.4470723098850131    0.8221598012429800    0.9452449752048528 O
   0.3732338949126552    0.6047036005034381    0.8618927850172674 O
   0.3728331633757170    0.6477650631978578    0.6135987778034001 O
   0.6318011884372541    0.1376246003781877    0.1369940624482566 O
   0.6717099357363402    0.3458159567297530    0.3324386494817165 O
   0.6344564429281292    0.0946930119258785    0.3977112985553162 O
   0.6688435641257942    0.4031067344695989    0.0733253460426760 O
   0.9251408843787313    0.3976534539338786    0.1852219656775602 O
   0.9257360444982339    0.3358445744519533    0.4413461132674025 O
   0.8725467029909965    0.1042605568265941    0.3643476797238410 O
   0.8729452637763649    0.1463238004531979    0.1127303877151858 O
   0.6229826431595131    0.1473061373895046    0.6426431687677308 O
   0.6771716379488354    0.3508217284891368    0.8259772397647359 O
   0.6425546314351701    0.1083636875987795    0.8848335896136323 O
   0.6644162237054750    0.3985619159466476    0.5748365979528466 O
   0.9036485300041105    0.3989452154479765    0.6877230959120966 O
   0.9224546141644661    0.3513528400780920    0.9358616943179680 O
   0.8928483571642057    0.1100507152081543    0.8547221844828968 O
   0.8702971901229084    0.1262922857347560    0.6190456671768826 O
   0.6350630945718919    0.6315364600444915    0.1337238440770769 O
   0.6821134339302765    0.8285926941069426    0.3079295425324594 O
   0.6124492820273818    0.6073564257254269    0.3928708825998301 O
   0.6844139973312681    0.9016243992628065    0.0641910982892683 O
   0.9285343692149067    0.9218971999434723    0.1928493165068422 O
   0.9270979070857163    0.8368346315104728    0.4325645677199784 O
   0.8676899916900482    0.5898654128401337    0.3695747224865659 O
   0.8758713505980864    0.6409027812761509    0.1142930043738352 O
   0.6163604046471974    0.6437869633500333    0.6219624252625774 O
   0.6840283954759891    0.8298450407986079    0.8033681003112558 O
   0.6196548999872378    0.5992651198474673    0.8884250493735820 O
   0.6779265555273548    0.9150721740005823    0.5572716116172526 O
   0.9327774944023505    0.8966873628168716    0.6794001958909982 O
   0.9344606374849819    0.8357269201346194    0.9389689229648267 O
   0.8668339351028843    0.6068429242624903    0.8627645905533043 O
   0.8735590965263765    0.6439534967417680    0.6256619131011575 O
   0.5089495640010061    0.9992685250825404    0.0218828494226109 Zr
   0.2382228625593349    0.0170814099981087    0.2344164359109633 Zr
   0.2428910354146062    0.2476267675961549    0.4866326204212896 Zr
   0.5048677323133419    0.2454628535328375    0.2810551892604816 Zr
   0.4894416928205381    0.9975097172740780    0.5144991263027955 Zr
   0.2532593960563455    0.0220622493906694    0.7348261804728518 Zr
   0.2611414355113297    0.2441688567081551    0.9835920998142809 Zr
   0.5112907427908454    0.2555040695681568    0.7658842527058324 Zr
   0.4984761896722572    0.5013432017314613    0.0172167945705995 Zr
   0.2524372483734229    0.5127285760983828    0.2294651490297254 Zr
   0.2428290975313896    0.7359306629458305    0.4790535979464119 Zr
   0.5032621923972784    0.7472343408018014    0.2699908398635387 Zr
   0.4906071692507335    0.5104433496604592    0.5114677068285205 Zr
   0.2481630885838026    0.5145642838378083    0.7310783642891989 Zr
   0.2638976453898965    0.7493705520918092    0.9827202942782439 Zr
   0.4942443130331546    0.7375506135951587    0.7638459334567925 Zr
   0.9996558387678419    0.0195512902331223    0.0068269668113787 Zr
   0.7478451048421506    0.0026701655059413    0.2326377630950530 Zr
   0.7467385332981940    0.2383353397068021    0.4959306159878514 Zr
   0.9994922961922802    0.2422031229173557    0.2633044704515909 Zr
   0.9994146821832335    0.0042346527494232    0.5202691522871306 Zr
   0.7502773970772011    0.0008825773369501    0.7315986047618334 Zr
   0.7517770215363629    0.2417950046347592    0.9866718476336286 Zr
   0.0032990720762203    0.2494112819626201    0.7699248818443685 Zr
   0.9974267818230539    0.5087160352231607    0.0177448054957650 Zr
   0.7600445629521796    0.5003715422991415    0.2254150437434499 Zr
   0.7467885315479723    0.7411661425502243    0.4830762224051763 Zr
   0.0019177732471851    0.7395757399892098    0.2629083674966127 Zr
   0.9932315007420742    0.5103379096022814    0.5171278095121425 Zr
   0.7513919623568739    0.5172849998842698    0.7287311226369183 Zr
   0.7498827939761304    0.7351422267320618    0.9740401435088322 Zr
   0.0062055508518478    0.7433467902786395    0.7720172151327235 Zr
