0,0,0,0,0,0,0,0,0,0,0,0,0,0,0,0,0,0,0,0,0,0,0,0,0,0,0,0,0,0,0,0,0,0,0,0,0,0,0,0,0,0,0,0,0,0,0,0,0,0,0,0,0,0,0,0,0,0,0,0,0,0,0,0,0,0,0,0,0,0,0,0,0,0,0,0,0,0,0,0,0,0,0,0,0,0,0,0,0,0,0,0,0,0,0,0
1.0
  10.8511596390277294    0.0000000000000000   -0.0000000000000000
   0.4646201470656638   10.6095007027670061    0.0000000000000000
  -1.6233356465196760    0.1198721238341125   10.9042880058731164
O Zr
64 32
direct
   0.0331208813654376    0.1580999470041498    0.1850371449390602 O
   0.4698577754453868    0.4237864324483850    0.0583147223236869 O
   0.4551770240732400    0.3323351151289706    0.3154757442803394 O
   0.0317231891451381    0.1013872245277402    0.4093979037967044 O
   0.2202003479841536    0.3769324758390433    0.2510500742575355 O
   0.2753201697068443    0.1264951949620115    0.0165170207264329 O
   0.2747161030830871    0.1152465798377987    0.2668411720446865 O
   0.2410765712682719    0.3621672366419826    0.4914511543086216 O
   0.0340829470342948    0.1725339515313748    0.6742522530806264 O
   0.4695582894418696    0.4271092794681532    0.5584600295975398 O
   0.4590638779646819    0.3383851594797450    0.8212912155453396 O
   0.0523012336735183    0.0743621975975716    0.9120009517855463 O
   0.2175997280029144    0.3705922431816370    0.7431819490218164 O
   0.2577714377643774    0.1123800157502059    0.5044761566493065 O
   0.2660610067778217    0.1336506276621493    0.7463450961875391 O
   0.2368676770834270    0.3651073023722575    0.0068389085798022 O
   0.0222831748438883    0.6492961560147972    0.1736050875839300 O
   0.4817424115890537    0.9034190192923415    0.0835240955493337 O
   0.4557417596544185    0.8413311311851726    0.3110389992151006 O
   0.0598994776411840    0.5730778156318016    0.4368930251598340 O
   0.2070068988170872    0.8974415220148577    0.2488279112527663 O
   0.2721037363165545    0.6373573890954236    0.0200876434098240 O
   0.2513374925037447    0.6272389810651322    0.2427915878665399 O
   0.2253329559972289    0.8487357058172302    0.4995305409914154 O
   0.0394909615298168    0.6521426741988484    0.6859638575917341 O
   0.4699457639113708    0.9102288988118122    0.5749173024798541 O
   0.4726995134432510    0.8391652191252412    0.8396484614922723 O
   0.0197589506990162    0.5880931513235169    0.9299630412401267 O
   0.2300520669154744    0.8857118052244549    0.7523112958848471 O
   0.3121837279883827    0.6158385898144992    0.5299556956206135 O
   0.2939360201686787    0.6284216893178540    0.7727476145862585 O
   0.2387667574536773    0.8793257533569903    0.9973386444986150 O
   0.5323525726816163    0.1758062065076510    0.1670930602180209 O
   0.9813977957278206    0.3892922067085861    0.0810022958880272 O
   0.9755625651633303    0.3567099782642675    0.3186701628321274 O
   0.5265624608391221    0.0934585927180379    0.4244223790409165 O
   0.7157420576039826    0.3691327105506708    0.2440348620071989 O
   0.7959100395404504    0.1301034574511753    0.0088847957746364 O
   0.7636208379418762    0.1248647948722877    0.2627408311809897 O
   0.7180482210519570    0.3743179173814772    0.4818328368225545 O
   0.5307915654606720    0.1550987889965091    0.6689560189506315 O
   0.9733023268658253    0.3990497885013349    0.5764060095546540 O
   0.9736753470746119    0.3203018460984901    0.8308583616848961 O
   0.5507176449600080    0.0720028903102458    0.9262938663358642 O
   0.7191503630851563    0.3758891343322406    0.7441570474137769 O
   0.7792969359359685    0.1176520881621928    0.5076298276438251 O
   0.7661813252770850    0.1147778875448827    0.7608635436932113 O
   0.7096857729705692    0.3830999319063592    0.9851428074546583 O
   0.5189265163226930    0.6592790155636403    0.1864149807585019 O
   0.9780278602669998    0.9129322319796935    0.0643226171871309 O
   0.9582220508375728    0.8370078981656482    0.3179916687116479 O
   0.5358373501624182    0.5825089355702950    0.4204575474832106 O
   0.7345772864754474    0.8925846861563939    0.2431317825402318 O
   0.7806335495890431    0.6206047418269777    0.0140576690580291 O
   0.7713224870093059    0.6219630903844642    0.2641035051210028 O
   0.7108038117142655    0.8698812694823439    0.4765963025922366 O
   0.5475487380802795    0.6638246626504948    0.6676104021169512 O
   0.9451669860758455    0.9314059631762598    0.5763036668616329 O
   0.9779662579533548    0.8224918009022635    0.8257469129713276 O
   0.5208393393252699    0.6097188620859242    0.9236357992814734 O
   0.7387057268282551    0.8644927399169701    0.7362093795556534 O
   0.8007520865637902    0.6270060667594859    0.5291653826359088 O
   0.7787992059621376    0.6192301656449837    0.7567963694424842 O
   0.7369152042408208    0.8748660172913815    0.9906295127001338 O
   0.1242332643045621    0.0239797802860109    0.1148224796819044 Zr
   0.3614657375104252    0.2822461316535319    0.1419063350552157 Zr
   0.3547279159332938    0.4742715611496355    0.3830873043017649 Zr
   0.1420592634150678    0.2434506279290292    0.3463680743268832 Zr
   0.1304463502907615    0.0223818354667956    0.6055291377523829 Zr
   0.3708391485798731    0.2650849297964807    0.6488523139786123 Zr
   0.3492956531286483    0.4833046267412250    0.8934740823199573 Zr
   0.1519456240864269    0.2154665477426523    0.8597739616608115 Zr
   0.1181293660387247    0.5267240520158190    0.0910375650721373 Zr
   0.3494869320805643    0.7773264729502160    0.1380798556484422 Zr
   0.3566562159392468    0.9734651307735066    0.3985666359380063 Zr
   0.1358673659915911    0.7290253930765221    0.3465793930300171 Zr
   0.1554337889314406    0.5138698555429363    0.6122486933492762 Zr
   0.3806138915953489    0.7713451574030176    0.6460246234055650 Zr
   0.3620953046163672    0.9754315383692115    0.8977933228219169 Zr
   0.1544256832265036    0.7232531276609500    0.8607509552888467 Zr
   0.6463154913011805    0.0152640126969401    0.1048554389689792 Zr
   0.8559751954391835    0.2653006618897472    0.1592183589120988 Zr
   0.8515415907119944    0.4809773928946224    0.3933822206630657 Zr
   0.6207526244798064    0.2245253866308465    0.3496136642160110 Zr
   0.6507955116694296    0.0290069108565318    0.6004698079941918 Zr
   0.8630262992560884    0.2763115898786263    0.6522163560582275 Zr
   0.8536969828688619    0.4634477282472906    0.9094262750817691 Zr
   0.6368796257744632    0.2311281251579746    0.8641235259216284 Zr
   0.6236831673762728    0.5371173752884469    0.1065763123253957 Zr
   0.8541453185822977    0.7726414591158830    0.1453793531449435 Zr
   0.8693245067865883    0.9760806437963097    0.3882935147640549 Zr
   0.6233939461761183    0.7294043560945509    0.3462856316034779 Zr
   0.6406321447962334    0.5304535444898698    0.5999789421350805 Zr
   0.8659425372921662    0.7681845867457632    0.6465988795969484 Zr
   0.8820354046030286    0.9779802317203086    0.8955578931737940 Zr
   0.6476835771699699    0.7340445052870492    0.8457198467183724 Zr
