2,2,2,2,2,2,2,2,2,2,2,2,2,2,2,2,2,2,2,2,2,2,2,2,2,2,2,2,2,2,2,2,2,2,2,2,2,2,2,2,2,2,2,2,2,2,2,2,2,2,2,2,2,2,2,2,2,2,2,2,2,2,2,2,2,2,2,2,2,2,2,2,2,2,2,2,2,2,2,2,2,2,2,2,2,2,2,2,2,2,2,2,2,2,2,2
1.0
  10.0960527065587549   -0.0000000000000000   -0.0000000000000000
  -0.4367510883821387    9.8847652321682329    0.0000000000000000
  -0.4547974998362866    0.0960839008863081   10.6863287402042921
O Zr
64 32
direct
   0.1258420622885736    0.1425207915835870    0.1477714254156298 O
   0.1774245174303637    0.3463508859663729    0.3258721583960393 O
   0.1272354342476691    0.1130886255685431    0.3938867893296283 O
   0.1819500902332929    0.4024777547463549    0.0601201003374446 O
   0.4501353942557365    0.4116653693209190    0.1799817158687962 O
   0.4086449920875009    0.3594332244789017    0.4189449107864909 O
   0.3690513931326417    0.1175860918682398    0.3667456128366379 O
   0.3894114817897729    0.1440851758953044    0.1134610599558273 O
   0.1197390935006560    0.1475117441065633    0.6377158041433900 O
   0.1855707406474681    0.3401385038176255    0.8055780804882321 O
   0.1322423913174750    0.1010005363573925    0.8839001934839810 O
   0.1917365009190237    0.4225018629989810    0.5667642830800856 O
   0.4489666907532383    0.4415329556655623    0.6932614170129275 O
   0.4111701264034885    0.3418090487834857    0.9175694734628339 O
   0.3830538732870353    0.1080345331380674    0.8647035600856265 O
   0.3750449063690170    0.1598930378794566    0.6206031713257228 O
   0.1194664475467458    0.6293516993202815    0.1482858066904001 O
   0.1723833840859588    0.8356006302872400    0.3203047375776842 O
   0.1206883517793147    0.6017543099659485    0.3869473699366046 O
   0.1770020445164982    0.9069543567660644    0.0780911068981438 O
   0.4208844464444567    0.9050231997434444    0.1778135609894848 O
   0.4089751118533991    0.8585942909057476    0.4261859618416468 O
   0.3666547352517364    0.6173941482633607    0.3707906920262169 O
   0.3955155455407100    0.6447614570051161    0.1151507646092194 O
   0.1294341142204798    0.6471103657527491    0.6372477550012012 O
   0.1592503687106753    0.8468392566724479    0.8129458357589251 O
   0.1310165935007580    0.6127480989929930    0.8979653063729867 O
   0.1796339647363533    0.9092128152664227    0.5534650687797324 O
   0.4201458714819029    0.9221899370101440    0.6796577343793330 O
   0.4103156708472808    0.8579639064106763    0.9308582866794564 O
   0.3720604672493323    0.6125789862176235    0.8568185868784118 O
   0.3784310103405809    0.6504082462100149    0.6140911422564514 O
   0.6294726462112807    0.1374884359060102    0.1406703163214930 O
   0.7047652179932595    0.3367994395153019    0.3123025157034612 O
   0.6289113200895299    0.1157159154211570    0.3841447484537634 O
   0.6879929353567538    0.4138974104986379    0.0590645786260861 O
   0.9371917266848845    0.4002270326096370    0.1759839143750736 O
   0.9292515576761378    0.3413401365796730    0.4352793528145829 O
   0.8824613382045077    0.1131269788334860    0.3671020866259636 O
   0.8758593604224859    0.1323026957632562    0.1103984111738496 O
   0.6164258528895381    0.1465284789658799    0.6321625666244342 O
   0.6745171068040130    0.3388976191676082    0.8169493105855083 O
   0.6434624910575397    0.1101131516728016    0.8945565848947717 O
   0.6667903157604516    0.4127173795121497    0.5664182103838484 O
   0.9272087675786144    0.4031108412111458    0.6846341840743462 O
   0.9438252578219353    0.3435140293136834    0.9327966719849794 O
   0.8755500381552361    0.1103334113061838    0.8582737941884299 O
   0.8686590242381054    0.1474242375004396    0.6190411164417852 O
   0.6281802192968453    0.6370437932931571    0.1426597615291831 O
   0.6815165145992572    0.8434716756461955    0.3287806819082409 O
   0.6280117935432014    0.6058073339900828    0.3865842772792168 O
   0.6696295089351487    0.8833687463691903    0.0789108074906443 O
   0.9263786057331929    0.9140407355732189    0.1777190056071299 O
   0.9140215032997625    0.8582216340070365    0.4214194250975202 O
   0.8687499766237046    0.6149458163293487    0.3648214108398719 O
   0.8704792172448333    0.6444202638593407    0.1138619747699002 O
   0.6342727822170500    0.6469746796316216    0.6161108451894897 O
   0.6518425585439482    0.8536975378456277    0.8206691192650268 O
   0.6282118604568264    0.6201265344200829    0.8768170499142696 O
   0.6742562955801720    0.9172166012585393    0.5634378247833030 O
   0.9110704423623225    0.8992896663648799    0.6663849955886593 O
   0.9141921839452267    0.8548036897164099    0.9245022739784375 O
   0.8781062592967566    0.5844772329278058    0.8598963645230636 O
   0.8859445357945814    0.6419757533413892    0.6166186075868401 O
   0.5083285002124782    0.0135246315925853    0.0162052720733247 Zr
   0.2532187281644221    0.0051995012319026    0.2443219247108888 Zr
   0.2415327425996435    0.2530319891872328    0.4908627878408054 Zr
   0.5173495537144676    0.2497056502601521    0.2576759811384353 Zr
   0.4864116028511952    0.0216258507208830    0.5131825854624759 Zr
   0.2432524168248842    0.0048376019715534    0.7291007429789260 Zr
   0.2418925242923254    0.2346733137173357    0.9885729999822224 Zr
   0.5012124843296726    0.2445974719663669    0.7568073606488538 Zr
   0.5132356368693297    0.4831575035945670    0.9982838375881798 Zr
   0.2521173602978909    0.4995713352816424    0.2405453828057005 Zr
   0.2476083936857186    0.7330085477784541    0.4883391047260854 Zr
   0.4969256013995267    0.7448579414982921    0.2568968447949430 Zr
   0.4992214031310664    0.5080489972745525    0.5165222815140983 Zr
   0.2532129669105003    0.5103291425188332    0.7418335705577827 Zr
   0.2504872341802778    0.7382099158524783    0.9939815677612159 Zr
   0.4912351344254650    0.7527701741210934    0.7662326410092701 Zr
   0.0067403707416865    0.0058376622653164    0.0134677046906241 Zr
   0.7617081261072595    0.0055229486754451    0.2353353813212304 Zr
   0.7550161702757715    0.2420626713777425    0.4830298200990325 Zr
   0.0047545128239470    0.2405170235992555    0.2691625687855278 Zr
   0.9963641699644660    0.0041138457395230    0.5204245820809067 Zr
   0.7416998750153881    0.0077666239601855    0.7322163427802628 Zr
   0.7600613407283243    0.2403251305661266    0.9803277707793714 Zr
   0.0030373082118049    0.2387843991008228    0.7665541293036620 Zr
   0.0043597061514484    0.5036971687692996    0.0225641214360948 Zr
   0.7470992689103637    0.5102446936830398    0.2312023656267164 Zr
   0.7456139598742221    0.7391274152820650    0.4840585826392153 Zr
   0.9891337154958252    0.7430536440079998    0.2738146935243976 Zr
   0.9995995834346071    0.5137480067255512    0.5273545459347591 Zr
   0.7511489620086503    0.5044285661282862    0.7188433752743738 Zr
   0.7477138587613966    0.7353132163479347    0.9794294946610365 Zr
   0.9915932012307440    0.7364686000264362    0.7711684318764890 Zr
