2,2,2,2,2,2,2,2,2,2,2,2,2,2,2,2,2,2,2,2,2,2,2,2,2,2,2,2,2,2,2,2,2,2,2,2,2,2,2,2,2,2,2,2,2,2,2,2,2,2,2,2,2,2,2,2,2,2,2,2,2,2,2,2,2,2,2,2,2,2,2,2,2,2,2,2,2,2,2,2,2,2,2,2,2,2,2,2,2,2,2,2,2,2,2,2
1.0
   9.7783037108661155    0.0000000000000000   -0.0000000000000000
  -0.4799608557660014   10.4967182803814136    0.0000000000000000
   0.1658156769890630    0.2153030696250951   10.6790931280368859
O Zr
64 32
direct
   0.1161965511627401    0.1447295168734205    0.1298775775593376 O
   0.1765538389900224    0.3434080199224973    0.3243390940572043 O
   0.1195006937681780    0.1008951946974318    0.3816487199179637 O
   0.1735419163898064    0.4060575172279590    0.0609416607475204 O
   0.4256318152401187    0.4034704676456738    0.1751308647632144 O
   0.4247857453356603    0.3421855771114928    0.4353424886795259 O
   0.3721848376490489    0.0994667054453086    0.3703102352500002 O
   0.3797924820527601    0.1532163419032066    0.1196538555455873 O
   0.1220796652121518    0.1350576884027094    0.6262916481962998 O
   0.1947518216928798    0.3335772201729207    0.8100147907587497 O
   0.1138364002768337    0.1005840498135156    0.8805221051320268 O
   0.2032696014139298    0.4149796779903291    0.5692830272487349 O
   0.4357743704959254    0.4132497009940241    0.6958864524076029 O
   0.4277150995688530    0.3439114671895552    0.9341598508968020 O
   0.3652699681519248    0.1040390135229255    0.8698378551089189 O
   0.3785086478231526    0.1471831330930372    0.6192897232291237 O
   0.1196746674783264    0.6465352560008365    0.1236049010879494 O
   0.1856639737009142    0.8472912773428394    0.3209786638343623 O
   0.1192438089106485    0.5993753247554012    0.3704783042309971 O
   0.1731118650246564    0.9141086468157584    0.0669584355644108 O
   0.4370945300451064    0.9042917532762083    0.1771040136764568 O
   0.4439398432317531    0.8459888530173474    0.4364297146228522 O
   0.3744861738917825    0.6125573009026647    0.3701117809079891 O
   0.3778944081676617    0.6373513196246590    0.1206252373263835 O
   0.1282675296641324    0.6453472851975555    0.6331463941023744 O
   0.1891945101579375    0.8262464161111762    0.8129621700748234 O
   0.1270721588257007    0.6010785007850538    0.8854046516717802 O
   0.1844046290826988    0.9179002058339985    0.5703949412809129 O
   0.4313987530106173    0.9136404768635760    0.6854414870474680 O
   0.4364729866277727    0.8429988558341213    0.9274845684879572 O
   0.3776388816238259    0.6146011375125774    0.8724025688792384 O
   0.3713022673793795    0.6428422190749987    0.6193267553811294 O
   0.6204451363026644    0.1452133486525054    0.1346338349672489 O
   0.6756781085973657    0.3433477900963401    0.3133158574313393 O
   0.6224839428237425    0.0997971903904756    0.3816772061851357 O
   0.6810443592635477    0.4057879522797584    0.0652155506698934 O
   0.9254163097247901    0.4078219986282094    0.1853583849365568 O
   0.9262911289064386    0.3445899308877888    0.4314901955487548 O
   0.8676016584248819    0.0991387872206023    0.3614576523324676 O
   0.8637288048450722    0.1484629324905717    0.1138436061773991 O
   0.6226001322487295    0.1606060367484787    0.6256763447785640 O
   0.6978836462789605    0.3434948036612163    0.8195576909355865 O
   0.6212896419304942    0.1049701438472509    0.8744972591990813 O
   0.6723505444511308    0.4018391745619748    0.5636000165405816 O
   0.9333892892250406    0.4104039776159119    0.6795210907701839 O
   0.9453746535498427    0.3430287195648763    0.9321781561080901 O
   0.8756907432516644    0.1132170273456930    0.8640361516162003 O
   0.8773219968416955    0.1484253013317310    0.6124102892248334 O
   0.6212823877834123    0.6388492231147087    0.1363601028796057 O
   0.6802621701661448    0.8372976603694423    0.3232955470662391 O
   0.6291273675804091    0.5998759402214073    0.3859824310060800 O
   0.6784171937737702    0.9003845793137355    0.0723496519167476 O
   0.9241125245001671    0.9118701545243029    0.1803713887505062 O
   0.9355419692482140    0.8333390941452088    0.4315291267852386 O
   0.8749141558380502    0.6044210105836284    0.3677369755948471 O
   0.8666903609503787    0.6540089934607544    0.1173607108837333 O
   0.6200782462636851    0.6479520844526870    0.6272943648663031 O
   0.6712672682110484    0.8550265689072377    0.8185796623637990 O
   0.6210012770518590    0.6101913450434817    0.8807281558119505 O
   0.6865987647990044    0.9147444317228023    0.5666376023834128 O
   0.9291583140770380    0.9082027895416163    0.6798420360657167 O
   0.9205362409080998    0.8338593515536296    0.9314916370177422 O
   0.8720560301387684    0.6015248171810106    0.8612767816821899 O
   0.8659289957225839    0.6508679187155422    0.6231581585826409 O
   0.5015537035959563    0.9965399471454292    0.0212807029468968 Zr
   0.2501252825063561    0.0070336423906744    0.2364342655624118 Zr
   0.2581650374003478    0.2500815692283221    0.4838128252234635 Zr
   0.5013905773440607    0.2370220817935428    0.2592109368474869 Zr
   0.5015304267072584    0.0218300681520664    0.5141507018872993 Zr
   0.2527712644178547    0.0069474307824962    0.7335899287395877 Zr
   0.2424312041742735    0.2317501193121930    0.9857912137746495 Zr
   0.4994327560744334    0.2417368697839811    0.7765918511401293 Zr
   0.5018233706002254    0.5041926495914025    0.0117756895171039 Zr
   0.2461383177003226    0.5101299222501529    0.2274848293271302 Zr
   0.2531941480570575    0.7385167347524302    0.4842942431714448 Zr
   0.5063190139034942    0.7340753941737999    0.2687348461795423 Zr
   0.5053430878212820    0.5052145109086339    0.5225664953467689 Zr
   0.2577292196398896    0.5078232093701496    0.7465283921974301 Zr
   0.2539165457674800    0.7487491955499505    0.9847087355472004 Zr
   0.4961050214842685    0.7415885193793359    0.7582732809811705 Zr
   0.9880287139794277    0.0094483425501522    0.0154808035961374 Zr
   0.7441478754419648    0.0074721243154392    0.2318223385842028 Zr
   0.7443211103535299    0.2330279436273922    0.4814902447381522 Zr
   0.9946998263879105    0.2413657131849550    0.2706462748331992 Zr
   0.9984905172794215    0.0059733053095704    0.5183372339143141 Zr
   0.7427203843063216    0.0173799437135239    0.7297025025412892 Zr
   0.7569825149067838    0.2470678748218660    0.9716620242647405 Zr
   0.0084585768398079    0.2442449051731024    0.7584413499715315 Zr
   0.9958410482096847    0.5099186611303070    0.0203458785493278 Zr
   0.7534380729362669    0.5067016192443426    0.2357382510496733 Zr
   0.7499914228135949    0.7456606761014278    0.4774053137447637 Zr
   0.9989798482250303    0.7428544912000995    0.2700385677627400 Zr
   0.9983699477836933    0.5079170610829626    0.5306233618117790 Zr
   0.7466924366833126    0.5139787516751891    0.7291394239607483 Zr
   0.7463323793746416    0.7386913996566158    0.9734756500630914 Zr
   0.0011888493791459    0.7414255917910429    0.7777930221615078 Zr
