2,2,2,2,2,2,2,2,2,2,2,2,2,2,2,2,2,2,2,2,2,2,2,2,2,2,2,2,2,2,2,2,2,2,2,2,2,2,2,2,2,2,2,2,2,2,2,2,2,2,2,2,2,2,2,2,2,2,2,2,2,2,2,2,2,2,2,2,2,2,2,2,2,2,2,2,2,2,2,2,2,2,2,2,2,2,2,2,2,2,2,2,2,2,2,2
1.0
  10.1222559478732670    0.0000000000000000   -0.0000000000000000
   0.2492513701139583    9.6574023735792878   -0.0000000000000000
   0.2959960962754601   -0.0042396920880600   10.5692333489547501
O Zr
64 32
direct
   0.1216369763180263    0.1481854883652444    0.1339898173541653 O
   0.1877059897677473    0.3218283069384510    0.3199210424315589 O
   0.1323801613827595    0.0945132804218668    0.3815468546542036 O
   0.1770137704364860    0.4083271445148060    0.0719451384215299 O
   0.4375893938701498    0.4127389195116211    0.1766218971865745 O
   0.4395861845005239    0.3342118130706257    0.4211045966110833 O
   0.3794425909741058    0.0980234411454216    0.3704243731819192 O
   0.3782397685997821    0.1449285335564882    0.1129291839713274 O
   0.1268430553948817    0.1346912786327373    0.6278448323459765 O
   0.1765357282784524    0.3388340315487465    0.8160936352070438 O
   0.1253346135304844    0.1094726600511831    0.8715452310181970 O
   0.1881461876149045    0.4205679289926765    0.5753673036939242 O
   0.4392471220347180    0.4142782652820196    0.6825510194562443 O
   0.4301205095651924    0.3317397191876741    0.9217165332775459 O
   0.3730851473851146    0.1102045205513261    0.8546259672366204 O
   0.3734879117515038    0.1521879715434008    0.6103163766876177 O
   0.1201019020342775    0.6282333707079656    0.1431078305267603 O
   0.1812208563585467    0.8274960976456941    0.3178938713310061 O
   0.1169545504273772    0.6022169899478942    0.3819195589999156 O
   0.1922921994932962    0.9146913785121129    0.0747910293491794 O
   0.4402878351425077    0.9156563426619552    0.1861239661053132 O
   0.4311377035656065    0.8322177275092413    0.4401144101393153 O
   0.3675153416066778    0.6049309620263015    0.3675193603785982 O
   0.3719928330223653    0.6369654886605538    0.1243581532741904 O
   0.1243316904281385    0.6433130528678237    0.6392056932367880 O
   0.1726265869380782    0.8495175954706786    0.8292603148710671 O
   0.1094189053675434    0.6018076695929070    0.8836146085490295 O
   0.1837518449055548    0.8970981781681744    0.5795928628641565 O
   0.4430894658960224    0.9173786527701109    0.6914363289010667 O
   0.4202075985041862    0.8352640689676192    0.9448885273204460 O
   0.3525830501589963    0.6040534084851854    0.8793512113742044 O
   0.3771930284057927    0.6574268747703201    0.6249984684417322 O
   0.6299444778162472    0.1394769827123054    0.1344599545567365 O
   0.6852017932052937    0.3447126017124788    0.3258521496585745 O
   0.6246093054763024    0.1202892952321083    0.3855964670988217 O
   0.6811495033897538    0.4015741931028825    0.0658770576173208 O
   0.9327082045340954    0.4074713156299348    0.2023120104460052 O
   0.9381200388120118    0.3333815832182527    0.4448810527742783 O
   0.8659041899895366    0.1034369200501448    0.3651838095410873 O
   0.8702571928076458    0.1336959084094067    0.1157518991120571 O
   0.6350074460003724    0.1496608958764168    0.6361218958577450 O
   0.6770270463382896    0.3373309723699833    0.8091021178982403 O
   0.6356731109019974    0.0949316274675512    0.8817624382209011 O
   0.6698400557543337    0.4142232041831607    0.5691249788798426 O
   0.9279700624459494    0.4064403167317136    0.6755188262927401 O
   0.9399385177577521    0.3298569545210957    0.9402581015001248 O
   0.8854056267827499    0.1019229279849960    0.8704431991285186 O
   0.8873012406075642    0.1495802401877726    0.6090071817305996 O
   0.6153589038812585    0.6316900207534498    0.1254185633465169 O
   0.6866945719188159    0.8325561408977317    0.3125984425849339 O
   0.6199914689825615    0.6082302173483113    0.3779219738009685 O
   0.6817052073360644    0.8988216953608855    0.0670317789293643 O
   0.9527474973125993    0.9105589208947886    0.1856954507011711 O
   0.9367711963922445    0.8281118536018994    0.4398883280649484 O
   0.8692230995168982    0.6046289732682243    0.3650911064312542 O
   0.8671488761276439    0.6481253226820635    0.1165720378594770 O
   0.6245250181484207    0.6591955296016956    0.6207312874636095 O
   0.6847843379111626    0.8415340652985603    0.8094445518364934 O
   0.6087251532659812    0.6014604317084742    0.8807985150522439 O
   0.6916995935256993    0.9278597773718389    0.5527836906238612 O
   0.9474545641511941    0.9211333558786647    0.6806647949268207 O
   0.9367027758254749    0.8354342459153972    0.9422814887973799 O
   0.8587909367119725    0.6098000620057662    0.8617603230134714 O
   0.8704964829108593    0.6431704237932746    0.6195847959253942 O
   0.5018606577216886    0.0155183713973069    0.0188746882497139 Zr
   0.2467008088605741    0.0128580636316508    0.2361477001495887 Zr
   0.2614598635602837    0.2426431376092267    0.4823520287783388 Zr
   0.4981231874596579    0.2430986274411000    0.2695813610531912 Zr
   0.5004699376829547    0.0019905347703376    0.5164866387153669 Zr
   0.2527351622509704    0.0085339801908832    0.7295552807302308 Zr
   0.2503219519990107    0.2467420162950266    0.9814182829567130 Zr
   0.5021441901661622    0.2478113237869076    0.7581825690973594 Zr
   0.4938454205528957    0.5095948887629514    0.0152152802280502 Zr
   0.2586151658098533    0.5055322474941774    0.2392031190180910 Zr
   0.2438140878935126    0.7389699141886537    0.4954685730841479 Zr
   0.4960225237755170    0.7449802406699448    0.2631403867126320 Zr
   0.4966891985103389    0.5173166543864041    0.5183312414463614 Zr
   0.2507295871829101    0.5068305924171007    0.7434304770342751 Zr
   0.2359265434659406    0.7388065160602222    0.9852682999311251 Zr
   0.4931536507566394    0.7419395799167932    0.7669713916290510 Zr
   0.0186469584555588    0.0053611342328661    0.0164238260968254 Zr
   0.7429644934034918    0.0088523964497848    0.2386658193566580 Zr
   0.7505543063087978    0.2453030029148056    0.4882604332044910 Zr
   0.9918187241290356    0.2350432856808620    0.2637789030436833 Zr
   0.0006352360938205    0.0026467073168163    0.5094043102031098 Zr
   0.7669061198358004    0.0090525585772178    0.7361390935388373 Zr
   0.7600174266143311    0.2359441786199582    0.9770290744144882 Zr
   0.0064282647691820    0.2461371044827528    0.7515410533334045 Zr
   0.9920832435643678    0.5055814804053210    0.0160233108124865 Zr
   0.7434496159014208    0.5151919728873212    0.2266834692354428 Zr
   0.7502072347870355    0.7423350817484656    0.4795501245320929 Zr
   0.0017677630639372    0.7364792901487862    0.2682806796464968 Zr
   0.9921427586703315    0.5034103919947951    0.5172424528634944 Zr
   0.7459581637503271    0.5203060064736444    0.7315531273765146 Zr
   0.7397936999548196    0.7362135402526030    0.9822412595542408 Zr
   0.9934557917526193    0.7441784315858658    0.7694242402741767 Zr
