2,2,2,2,2,2,2,2,2,2,2,2,2,2,2,2,2,2,2,2,2,2,2,2,2,2,2,2,2,2,2,2,2,2,2,2,2,2,2,2,2,2,2,2,2,2,2,2,2,2,2,2,2,2,2,2,2,2,2,2,2,2,2,2,2,2,2,2,2,2,2,2,2,2,2,2,2,2,2,2,2,2,2,2,2,2,2,2,2,2,2,2,2,2,2,2
1.0
  10.4841613101226745    0.0000000000000000    0.0000000000000000
  -0.2079259120505549   10.0206613284912933   -0.0000000000000000
  -0.2242701019112725   -0.3641357976785753   10.1720544827598385
O Zr
64 32
direct
   0.1286882747316920    0.1554872622867200    0.1416432026137839 O
   0.1706504592155806    0.3576240983952967    0.3380438515275287 O
   0.1335377315538833    0.1061160422183162    0.3749969015959369 O
   0.1819214289215456    0.4057585423663356    0.0585615219137501 O
   0.4286764496802799    0.4113299495585672    0.1935264723794419 O
   0.4401514107161157    0.3385610526993100    0.4346534911598730 O
   0.3796990205068156    0.1189685904797759    0.3770021571649639 O
   0.3850900287023303    0.1418344471794888    0.1096309661229259 O
   0.1218680145533116    0.1513953386094552    0.6332598266571912 O
   0.1644287795710731    0.3406678277103998    0.8327359571123516 O
   0.1280057431461340    0.0974610812483650    0.8848499116333829 O
   0.1676400219528331    0.4073235833665415    0.5731796847609999 O
   0.4203494586584373    0.4047487238972242    0.6822065929711005 O
   0.4256652495780770    0.3450083530832307    0.9422374708417386 O
   0.3727220081780565    0.1195082272777804    0.8570268724155264 O
   0.3638941193156985    0.1355452095762147    0.6147076672758349 O
   0.1265290107897437    0.6350024555650433    0.1343028894423839 O
   0.1776246359616263    0.8490834255083689    0.3141528528200518 O
   0.1213682215812651    0.6105439189715470    0.3930772917581907 O
   0.1869284447586937    0.9201455956586169    0.0778375965191627 O
   0.4289467620795775    0.9061624152379134    0.1885024610170750 O
   0.4135229629691080    0.8440605549041347    0.4243303485068355 O
   0.3681604049410604    0.6121307092632882    0.3596450204332211 O
   0.3741068923780038    0.6606800280880364    0.1208239037436364 O
   0.1341186995680672    0.6464195118930286    0.6468569910190630 O
   0.1858481719764794    0.8434882813706241    0.8246610453588594 O
   0.1197764522170918    0.6219246023389781    0.8914972251150990 O
   0.1704849030703125    0.9038971843226193    0.5689384888675726 O
   0.4174897231562562    0.9053512236376055    0.6608096367938714 O
   0.4149299527099181    0.8629061995205840    0.9101590542983514 O
   0.3680773298067054    0.6053626842569113    0.8635049540569180 O
   0.3743970713035071    0.6400153639596687    0.6203008270840553 O
   0.6342334405545398    0.1394503341811720    0.1370474707309836 O
   0.6853182939546354    0.3439771779434155    0.3250120538975937 O
   0.6233102352304243    0.1098175520946323    0.3775334884421567 O
   0.6716910002262904    0.4026950840500423    0.0755824639853290 O
   0.9322338628648931    0.4093066566640335    0.1805438370697488 O
   0.9274198807031110    0.3478939709033741    0.4364422434154610 O
   0.8768307880938975    0.1127128937408727    0.3616824206000335 O
   0.8894811443011653    0.1372667936260880    0.1074167706781243 O
   0.6119099287718530    0.1355982950168109    0.6327256590896454 O
   0.6868546031017156    0.3323111696467579    0.8072566371638330 O
   0.6322675457586275    0.1114297823416305    0.8981643926194556 O
   0.6716588645361834    0.4016557991485592    0.5731163409988236 O
   0.9363251513921784    0.4112030184512612    0.6785194186580287 O
   0.9285378710293631    0.3459924776923172    0.9214124994007160 O
   0.8761246446346045    0.0916637245635588    0.8621028823884883 O
   0.8731120589477214    0.1470380804182368    0.6125114349770536 O
   0.6267134331054538    0.6268080085906637    0.1384599421274308 O
   0.6655142161072276    0.8412547072341736    0.3102624112020806 O
   0.6298239842385753    0.6037317625514604    0.3969185710460891 O
   0.6788052699287390    0.9034715985750753    0.0562303768594064 O
   0.9200623835749955    0.8973495808761252    0.1665940275852934 O
   0.9136054893716667    0.8575364155279288    0.4100855650714358 O
   0.8797853926107371    0.6209700923238064    0.3633284130323762 O
   0.8851764063304159    0.6336830920052716    0.1062718557821474 O
   0.6184785309974898    0.6406091753796959    0.6351941750263774 O
   0.6572450306559191    0.8460611524155620    0.8165322441378138 O
   0.6229037978516434    0.5974730053447498    0.8876190740821037 O
   0.6701696931896483    0.8981074907283609    0.5707121142576624 O
   0.9082066253471700    0.9096278695959288    0.6587694003367059 O
   0.9090061467228470    0.8448115622797563    0.9219731389755104 O
   0.8789146585065846    0.6119123448083316    0.8520132607811771 O
   0.8786059630797516    0.6405865696525493    0.6059255744005555 O
   0.5093687902872401    0.0021521460742378    0.0094666540926621 Zr
   0.2577292810685440    0.0127451917124749    0.2371145453642519 Zr
   0.2443216000484912    0.2411380740834053    0.4831247065407630 Zr
   0.5087663539720200    0.2529868889373892    0.2601574939738238 Zr
   0.4984603716735410    0.0152196005620598    0.5025211342962767 Zr
   0.2501478222301157    0.0044033424450565    0.7366841207742795 Zr
   0.2529105497881932    0.2399985074672474    0.9886315780203663 Zr
   0.4976982548401240    0.2495487493101586    0.7608436213959596 Zr
   0.5105874302730733    0.5011326597535296    0.0279982503812474 Zr
   0.2507686623155831    0.5114024617782942    0.2377801276034618 Zr
   0.2447496407629330    0.7475548399107783    0.4869385683880183 Zr
   0.4919894613194902    0.7446988752221441    0.2682220059992985 Zr
   0.4968085837240885    0.5055016123224862    0.5192637419758408 Zr
   0.2485381537888489    0.4983462937834575    0.7387877009837904 Zr
   0.2510011026521343    0.7368896600807665    0.9914867745442567 Zr
   0.4990628562054314    0.7466984688523262    0.7549564330800204 Zr
   0.0085774458107526    0.0005239331802650    0.0141549907783166 Zr
   0.7544368549371155    0.0079027526158472    0.2293648612927002 Zr
   0.7451937516970094    0.2320479882839656    0.4923010434408653 Zr
   0.0016843297636068    0.2425970958581368    0.2707349571187919 Zr
   0.9999340402164302    0.0138906914732156    0.5159017953447094 Zr
   0.7479418520896142    0.0077502736453593    0.7415672631605286 Zr
   0.7599066060540388    0.2363589337800107    0.9926307440166697 Zr
   0.9985135833879316    0.2443017466429559    0.7655093150550367 Zr
   0.0041296762589777    0.5073647685984056    0.0096323878490883 Zr
   0.7626875512237041    0.5060207703809975    0.2377952544689599 Zr
   0.7417089912096981    0.7437156909240850    0.4841561699209270 Zr
   0.9971613714380130    0.7485675193912941    0.2660976263435834 Zr
   0.9935367290657197    0.5034055668053796    0.5085198832809010 Zr
   0.7461568188988078    0.5039973657301270    0.7340123375326481 Zr
   0.7458404472783137    0.7304776439138395    0.9792151020800985 Zr
   0.0002279276917052    0.7503989936264198    0.7664159817579758 Zr
