1,1,1,1,1,1,1,1,1,1,1,1,1,1,1,1,1,1,1,1,1,1,1,1,1,1,1,1,1,1,1,1,1,1,1,1,1,1,1,1,1,1,1,1,1,1,1,1,1,1,1,1,1,1,1,1,1,1,1,1,1,1,1,1,1,1,1,1,1,1,1,1,1,1,1,1,1,1,1,1,1,1,1,1,1,1,1,1,1,1,1,1,1,1,1,1
1.0
  10.7056198612095042   -0.0000000000000000   -0.0000000000000000
   0.1090323681317648   10.1008904525810248    0.0000000000000001
   0.4032989894106503    0.4866861924028819   10.2246985874514298
O Zr
64 32
direct
   0.1518683536891176    0.1499584053348058    0.1065023990376061 O
   0.3906984087894158    0.8575111273091164    0.1126590643770869 O
   0.4153556787183288    0.1185447050881395    0.1128596716500012 O
   0.1190695323727364    0.4236106543227789    0.1603847581006055 O
   0.1462644287080184    0.3769019876440916    0.4112455610437792 O
   0.3669408427687373    0.1136924558077917    0.3779362779791435 O
   0.3400612272829175    0.8907646066994934    0.5826282126312409 O
   0.1470747389594263    0.1454887224489529    0.3398839986408067 O
   0.8992224001688063    0.8846339319916096    0.5783881472513961 O
   0.1234815419212897    0.1661338512398381    0.5858266271194817 O
   0.4391065161840670    0.3864603804464580    0.6173106665800756 O
   0.1821660750458259    0.3853886177785634    0.6500331969254318 O
   0.9212218909207042    0.3955621927405595    0.8350175864624778 O
   0.3562924240767080    0.3336739062661273    0.1270057804925165 O
   0.1371184001929385    0.4107129758587809    0.8948136217852556 O
   0.1582383727079603    0.1666798254027250    0.8489272989477483 O
   0.1385025600566746    0.6119640520062751    0.2986606175313337 O
   0.4216882100720838    0.6439929344046582    0.6298848809102455 O
   0.3729946197074364    0.8354414673405811    0.3305232678885610 O
   0.1440334321625488    0.9211728685947251    0.1341918530961798 O
   0.0995659509818589    0.8562096325494083    0.3671590527184166 O
   0.4006653209974366    0.6415562363233206    0.8875324255560220 O
   0.4105659088707424    0.3752957854725182    0.3729860817100704 O
   0.1441631971451625    0.6140547101263387    0.5643465802191707 O
   0.1754980771682485    0.6875545598535990    0.7870084054678961 O
   0.3718123164919901    0.6103645783902415    0.1557010963681439 O
   0.3824242087381975    0.8674559314059980    0.8753839130363038 O
   0.1168596827104153    0.8932455209968541    0.6084189612821240 O
   0.1155956756168756    0.9202462504667681    0.8515964116229614 O
   0.4046668886946959    0.1430203040361247    0.8675150222605166 O
   0.1227923456566386    0.6465613199253614    0.0653454161103577 O
   0.9177653361675822    0.6380987203407308    0.8738233203338858 O
   0.6450454726335539    0.1134550339410382    0.0731728668772901 O
   0.9068429691649184    0.8837572974072094    0.0240709884594600 O
   0.8669291816777737    0.1652283800012457    0.1640230016714873 O
   0.5971381619661402    0.3756475927705217    0.1207539915176854 O
   0.6700055275334108    0.4016678756665881    0.3698027363017327 O
   0.9259684057725365    0.4291722855356996    0.3191922535404033 O
   0.8607908171937354    0.1068656640357178    0.3957686631336332 O
   0.6307559445389029    0.1422667058913651    0.3384609113903074 O
   0.3659421329774987    0.1243975866000701    0.6495688805683877 O
   0.6197884000985338    0.1417207317272941    0.5845250344137237 O
   0.8760454123047992    0.1680582179312182    0.6590445131331368 O
   0.6650408152619491    0.3930918518783681    0.6429083424979960 O
   0.3939377273477062    0.3900707307362027    0.8672635568135884 O
   0.6378718719249207    0.3499800783818535    0.8885006146244165 O
   0.9014447457194174    0.1276811213780110    0.9238724794678327 O
   0.6299427506185068    0.1029822305287024    0.8172492449464778 O
   0.6336203864680664    0.6340750445330625    0.0803066685806987 O
   0.8660650429943185    0.3991283268193285    0.0859019161188718 O
   0.8869197182016605    0.6272792041109945    0.1233524678319513 O
   0.6711311186466404    0.8426429434922206    0.1815342268258152 O
   0.6484289745138090    0.8990657209625807    0.4087789392666881 O
   0.9164157803067667    0.8997308866706651    0.2651601453882837 O
   0.9051944732199546    0.6847766279181247    0.3593268928542342 O
   0.6361830046538728    0.6421973714845618    0.3308189987968256 O
   0.6851303576602739    0.6382054160010893    0.5854084598587619 O
   0.9318626198359519    0.3727677712876364    0.5801728926738574 O
   0.9088740315155532    0.6054037110078340    0.6361583317069979 O
   0.5584979937965219    0.9206115148780157    0.6727225383486322 O
   0.5959462465330976    0.8406762830235474    0.9199837122675165 O
   0.7981220183631927    0.8325222357463661    0.7926480126413309 O
   0.6475186971564556    0.6246675636064424    0.8260919757054035 O
   0.3959293795864989    0.6148438734885483    0.4016154703024399 O
   0.0284162893451257    0.0325522359046008    0.9909337001322270 Zr
   0.0166196716026191    0.2823677141655076    0.2454610766306779 Zr
   0.2702447807366849    0.0321872598639662    0.2261425024242538 Zr
   0.2581208860865061    0.2669948887292247    0.9680098459769894 Zr
   0.0377924344298518    0.0190168346163356    0.4482844440446713 Zr
   0.0097374749878074    0.2788938574047373    0.7286307482983678 Zr
   0.2324918205868917    0.9946880978829962    0.7269524283211842 Zr
   0.2840527365515834    0.2769964049313399    0.5455337623590850 Zr
   0.9887861940365773    0.5185601757550802    0.0033245613950634 Zr
   0.0189180690483932    0.7495754949778172    0.2041811864422274 Zr
   0.2748067409350651    0.4684458990883005    0.2592059709469249 Zr
   0.2387849418276385    0.7909935950901952    0.0137439522738076 Zr
   0.0098409601590286    0.5183842721031867    0.4736871636044213 Zr
   0.0153270873763331    0.7657961183234149    0.7105581995166576 Zr
   0.2840690773304522    0.5292681902211316    0.7496681406537756 Zr
   0.2557457062135927    0.7373737413321387    0.4668213091736454 Zr
   0.5139943706586819    0.0105452476146468    0.9443447809356625 Zr
   0.4983399071456876    0.2344911625986626    0.2308214550692456 Zr
   0.7453480400728854    0.0138983171923409    0.2346141568167175 Zr
   0.7516565408802734    0.2510972360169919    0.0080748850241246 Zr
   0.4636167191356682    0.0172729758259717    0.5023222031115347 Zr
   0.5189264013842326    0.2643659462190433    0.7575521005192462 Zr
   0.7447107498042057    0.9959761355276967    0.6943316143434163 Zr
   0.7573027596338131    0.2641986935765622    0.5018974431185771 Zr
   0.5238084485535187    0.5103705632496006    0.9748945367674243 Zr
   0.4927696249418211    0.7535213118033071    0.2145619062543756 Zr
   0.7531973799407041    0.5336033019984668    0.2348609131761760 Zr
   0.7640082451780624    0.7569336503385896    0.9679345005285723 Zr
   0.5419101835945448    0.5104916772437541    0.4949600105093601 Zr
   0.5256943663574730    0.7529080520875254    0.7420262280602938 Zr
   0.7761965417056187    0.5176450922906785    0.7424312098760985 Zr
   0.7707723652658998    0.7703484663078483    0.4496133494773141 Zr
