2,2,2,2,2,2,2,2,2,2,2,2,2,2,2,2,2,2,2,2,2,2,2,2,2,2,2,2,2,2,2,2,2,2,2,2,2,2,2,2,2,2,2,2,2,2,2,2,2,2,2,2,2,2,2,2,2,2,2,2,2,2,2,2,2,2,2,2,2,2,2,2,2,2,2,2,2,2,2,2,2,2,2,2,2,2,2,2,2,2,2,2,2,2,2,2
1.0
  10.0965214842168756   -0.0000000000000000   -0.0000000000000000
  -0.4411475464714552   10.4488570694340304   -0.0000000000000000
   0.4337262333436109    0.4783162799605951   10.0801064769379618
O Zr
64 32
direct
   0.1117536701443283    0.1372228552086104    0.1321985054968186 O
   0.1748577589194742    0.3459548359027925    0.3189037602583435 O
   0.1141416595497092    0.1207777944459306    0.3937057304185880 O
   0.1685066648101820    0.4067203412722835    0.0716519446448745 O
   0.4289660398115761    0.4020706314033868    0.1730134601643389 O
   0.4276611634407396    0.3448158108919565    0.4287909061465563 O
   0.3688513931441142    0.1075673607246556    0.3738952236092730 O
   0.3650807891212340    0.1384772382482000    0.1192500775413583 O
   0.1201478230011316    0.1476344941222826    0.6390516026827526 O
   0.1823576831427379    0.3407439201300405    0.8198630182833597 O
   0.1311331852240798    0.0974150504084307    0.8946877482527911 O
   0.1848378296954072    0.4143401981066892    0.5657669523281068 O
   0.4303940540986869    0.4097585292415939    0.6817262224483438 O
   0.4321826204902733    0.3334888047481445    0.9330636113138635 O
   0.3704032197843913    0.1048750682469960    0.8684769967984813 O
   0.3744585919714345    0.1433772975701057    0.6199580294709680 O
   0.1195825203632853    0.6433672382053698    0.1401217598972286 O
   0.1718035530371903    0.8621549677940626    0.3352396047037111 O
   0.1212993397620551    0.6228572799372026    0.3816221747558903 O
   0.1704670187278706    0.8960262480152329    0.0788813097281426 O
   0.4293747604853005    0.9137118008599585    0.1912374194469398 O
   0.4350605876269918    0.8414487974696324    0.4337354720808579 O
   0.3672927999478397    0.6066647352898741    0.3595518097444703 O
   0.3725175535776650    0.6336171976014134    0.1206621332902301 O
   0.1267994334328182    0.6481864339045629    0.6384484680517932 O
   0.1718292959586995    0.8417366666429905    0.8257046995726121 O
   0.1235655754919371    0.6059506469975131    0.8934312177856797 O
   0.1727126055278486    0.9138793626778585    0.5709286846688355 O
   0.4258589656080353    0.9014134408430563    0.6870311518379631 O
   0.4187317749776429    0.8430265232246646    0.9394098014405606 O
   0.3773024610056290    0.6060364484169561    0.8635675188764749 O
   0.3676093139571625    0.6410033370021707    0.6164549173579373 O
   0.6211996808460033    0.1429898479748186    0.1344602603455556 O
   0.6847243503070851    0.3464646752417314    0.3150583028528405 O
   0.6153391473608242    0.1055220869557888    0.3871034925799043 O
   0.6783192101820327    0.4090506091560060    0.0704817117384079 O
   0.9230146154504633    0.4017402697913459    0.1822985090985076 O
   0.9295592978126871    0.3342936111581097    0.4333789019287248 O
   0.8736464291683885    0.1085722470193805    0.3669477955081689 O
   0.8716338230107300    0.1478219753036652    0.1238617814461092 O
   0.6172446344402231    0.1410864718951933    0.6380188768852805 O
   0.6893175412144659    0.3345203410877802    0.8165685376371504 O
   0.6327129310438417    0.1029658798489017    0.8956000367907186 O
   0.6730572118688137    0.4001879888176404    0.5654246070455549 O
   0.9371721176044034    0.4067083745227326    0.6775384197602889 O
   0.9305333152951055    0.3450435002877834    0.9335254455326439 O
   0.8777777647772889    0.1122692048449606    0.8721308925766922 O
   0.8709864362384094    0.1549566466690657    0.6210628279694242 O
   0.6184235640196661    0.6431542327853966    0.1285540929716089 O
   0.6720714384613086    0.8459841137406595    0.3343794740275286 O
   0.6252807311031959    0.6078717755108862    0.3817900282605998 O
   0.6731434232861440    0.9017863378681521    0.0805840270594792 O
   0.9278915226286172    0.9134376547102728    0.1776412855952237 O
   0.9225085721708502    0.8482906917532657    0.4349113949371411 O
   0.8712113020542614    0.6115126360575053    0.3713897492615783 O
   0.8738958487455458    0.6502554868301684    0.1167559830932968 O
   0.6281217239283611    0.6374906720919330    0.6432194905414891 O
   0.6680426899205348    0.8391884591651505    0.8309802308997527 O
   0.6316898937293810    0.5957381011807440    0.8822703822273062 O
   0.6831805972941372    0.9133991055888000    0.5847562097965602 O
   0.9413513340852538    0.9253945870521012    0.6864166373172910 O
   0.9209079955902367    0.8459701778412744    0.9259170349989392 O
   0.8700273743376248    0.6121219690370004    0.8564816353430603 O
   0.8785322774163206    0.6342304725711843    0.6175767856959229 O
   0.4963623835179484    0.9997007022517369    0.0139217190335304 Zr
   0.2504338555258585    0.0092868415232622    0.2292737822053290 Zr
   0.2576643958848780    0.2434930411618617    0.4811773210329603 Zr
   0.5065517380239670    0.2360812012316423    0.2618705534350524 Zr
   0.4995405257108755    0.0147034536188490    0.5116043249244081 Zr
   0.2447719134039660    0.0110733250029026    0.7346086112524279 Zr
   0.2515150493697709    0.2484680467968055    0.9860977321064439 Zr
   0.4999798443410967    0.2332794444581584    0.7649768189990775 Zr
   0.5060052367708160    0.5015177718587962    0.0105963419577336 Zr
   0.2465748395786021    0.5066940149069717    0.2274207553803907 Zr
   0.2548941778933683    0.7512103309562952    0.4854201265626288 Zr
   0.5033235952879714    0.7469265526785326    0.2646425070611303 Zr
   0.4976714147925298    0.5108012590024329    0.5106332402416823 Zr
   0.2531736574371438    0.5039494544259813    0.7318707973153292 Zr
   0.2498483695585196    0.7340374408608669    0.9844571300614323 Zr
   0.4998392487477364    0.7358825711011024    0.7684780344654762 Zr
   0.9961656928498085    0.0093685518380316    0.0132832118893127 Zr
   0.7512864291573719    0.0100341036225953    0.2355213465385115 Zr
   0.7508629615182801    0.2415394809655363    0.4861465434230810 Zr
   0.9978783170999721    0.2372497865198127    0.2620497868294747 Zr
   0.9890246017966079    0.0121199428162891    0.5133169996704040 Zr
   0.7490844622862478    0.0132058399669826    0.7365289691419292 Zr
   0.7509466824934499    0.2443666572102199    0.9871124397311503 Zr
   0.0005912901163293    0.2351975006055067    0.7724164277146771 Zr
   0.9935906039076012    0.5121149164551628    0.0168836221412314 Zr
   0.7466294866893521    0.5100548052228656    0.2362354351760144 Zr
   0.7508373399117633    0.7367681928104468    0.4912618078518812 Zr
   0.0010522626947740    0.7541441687215535    0.2686074534028619 Zr
   0.0050336586405236    0.5061348083121637    0.5040025526638361 Zr
   0.7604774500837043    0.4974329891869472    0.7296782701877077 Zr
   0.7513101944470140    0.7334230713823382    0.9812897249479003 Zr
   0.0085895255222101    0.7533669753933188    0.7640351323887509 Zr
