2,2,2,2,2,2,2,2,2,2,2,2,2,2,2,2,2,2,2,2,2,2,2,2,2,2,2,2,2,2,2,2,2,2,2,2,2,2,2,2,2,2,2,2,2,2,2,2,2,2,2,2,2,2,2,2,2,2,2,2,2,2,2,2,2,2,2,2,2,2,2,2,2,2,2,2,2,2,2,2,2,2,2,2,2,2,2,2,2,2,2,2,2,2,2,2
1.0
   9.8409480220088206   -0.0000000000000000    0.0000000000000000
   0.3104360044820887    9.6638807996353719   -0.0000000000000000
   0.4270461187476830    0.0695938259323140   10.5207704727675093
O Zr
64 32
direct
   0.1301861753275877    0.1475203864682331    0.1308686788352507 O
   0.1780750634627386    0.3395041117983209    0.3170627623836494 O
   0.1282635168232861    0.1054296510767366    0.3930085820237788 O
   0.1894772878810056    0.4174296539660718    0.0515808534845119 O
   0.4404405202040944    0.4051716192990562    0.1749520957580418 O
   0.4219469833072282    0.3440526505468370    0.4260475009033164 O
   0.3728899910686398    0.0980765227496511    0.3733076110790646 O
   0.3868970753536470    0.1408072015676907    0.1223720381156965 O
   0.1207303210162135    0.1336218350598440    0.6358636453780786 O
   0.1852528010782405    0.3363332860371008    0.8126749180709875 O
   0.1345082923911528    0.1030633055169825    0.8919129022716549 O
   0.1628253224732218    0.4018837808899628    0.5765488839720305 O
   0.4232583136405162    0.4156120590941431    0.6746678716708902 O
   0.4319412526090449    0.3410372123762185    0.9268915595907701 O
   0.3823550525792319    0.1022706329303638    0.8615504630542188 O
   0.3730390415926675    0.1401766858636049    0.6213368865256164 O
   0.1281271100707754    0.6504370139958703    0.1236043536607946 O
   0.1791167342864386    0.8430590101944467    0.3239875624055281 O
   0.1079205261735166    0.5872419345263676    0.3710160527029547 O
   0.1874917367330111    0.9101112709312262    0.0760233547315100 O
   0.4326347223634446    0.9131157563829249    0.1880819781233647 O
   0.4291989346276755    0.8425338125962504    0.4288327420960455 O
   0.3587180821805675    0.6059367747685067    0.3627728736482950 O
   0.3804701370683150    0.6389116949591067    0.1183365120665447 O
   0.1187378932634747    0.6410083485891075    0.6232775707134188 O
   0.1780742011593823    0.8412955355987174    0.8137218661275496 O
   0.1206049090624517    0.6016624854169753    0.8897471289797673 O
   0.1907994371372483    0.9101357509122364    0.5628156114827209 O
   0.4262746923826656    0.9129445236536622    0.6820967577968927 O
   0.4324174683940336    0.8350819236693939    0.9479307703665351 O
   0.3809133955928834    0.6047378098711158    0.8699184814448758 O
   0.3643904358114279    0.6464666243313130    0.6208110481172677 O
   0.6219303048239784    0.1525046276228189    0.1311240320251101 O
   0.6776552982536463    0.3428961112118124    0.3124758626100148 O
   0.6206701262773722    0.1102988272167030    0.3872224680450003 O
   0.6785313129099920    0.4173204861443591    0.0621571094429531 O
   0.9348414445169113    0.4143680717950645    0.1914620976680358 O
   0.9420730050182258    0.3131204521504575    0.4501887799719385 O
   0.8610531868333796    0.1013620119240163    0.3692285804214638 O
   0.8835559228357691    0.1444962082695524    0.1249161124179809 O
   0.6169863901721918    0.1295463212822026    0.6432944230005311 O
   0.6845811790866343    0.3430248348144220    0.8198560170309505 O
   0.6196050549011800    0.1165545898253833    0.8847961144856454 O
   0.6797280913377746    0.4120676474205404    0.5605117583226563 O
   0.9241527399574386    0.4082596128320410    0.6839617817845169 O
   0.9319693541713806    0.3407047968671273    0.9343280117310875 O
   0.8782475382028531    0.1085864953743707    0.8671266199765518 O
   0.8787942791954207    0.1361670671399567    0.6179643330047651 O
   0.6276534491030541    0.6548901782056659    0.1308081506732070 O
   0.6840497472629805    0.8447869735392340    0.3182023941844795 O
   0.6147606304329689    0.6006712560768769    0.3819300368923461 O
   0.6920151024145884    0.9245643937999724    0.0600068464979952 O
   0.9404930519986354    0.9157858830675465    0.1996532603326967 O
   0.9396023369272489    0.8242530133096529    0.4424156399332235 O
   0.8568724136389366    0.6108983960938980    0.3628258357960238 O
   0.8825131238215957    0.6462415179913196    0.1242616516712302 O
   0.6104869256761344    0.6398665352577337    0.6286106692298472 O
   0.6736864080484539    0.8401183165574797    0.8221447381528805 O
   0.6261014213030456    0.6050564534096690    0.8777360718497700 O
   0.6667684565946741    0.8945260666377420    0.5658741751671290 O
   0.9313870515701351    0.9113394940873082    0.6894339059173473 O
   0.9364047729908636    0.8404320207071613    0.9303218040099801 O
   0.8715177751617290    0.6163703314015465    0.8572416145323980 O
   0.8726780019411360    0.6588328133993288    0.6233314786093727 O
   0.5084723528636003    0.0101071033316420    0.0195206939008504 Zr
   0.2553307085899364    0.0092278103855388    0.2400889097370025 Zr
   0.2470830581717093    0.2479702757893044    0.4813787526502116 Zr
   0.4957127711408559    0.2398684719347887    0.2681569533146438 Zr
   0.5007891716995644    0.9968102208422187    0.5167101756635890 Zr
   0.2579161481927002    0.0131887578246888    0.7327266737216607 Zr
   0.2598223151978505    0.2392005384954893    0.9755959233658701 Zr
   0.5046917568104317    0.2357554780512038    0.7682245491735294 Zr
   0.5018004130754905    0.5047905865139940    0.0124869431891942 Zr
   0.2438626314842096    0.5038818095252978    0.2308772800991490 Zr
   0.2358031481135621    0.7360934996755109    0.4861302133658876 Zr
   0.4927021257074304    0.7372186409535915    0.2666938741571008 Zr
   0.4953923651318318    0.5088758233692305    0.5138133356575374 Zr
   0.2464784552287296    0.5120209213927263    0.7355100234179398 Zr
   0.2530131833985880    0.7383711121267030    0.9920520173799102 Zr
   0.4885657233777213    0.7429639813435703    0.7630266932710981 Zr
   0.0015649664578262    0.0055711498439360    0.0147257285767253 Zr
   0.7535850013932773    0.0100750426445773    0.2411368035417896 Zr
   0.7495611697642657    0.2378247665116152    0.4891802652687460 Zr
   0.9996148191699628    0.2421619330004043    0.2589755877530596 Zr
   0.0040380052816599    0.0103104081157629    0.5067740995871662 Zr
   0.7524532898956262    0.0110042469796923    0.7369210861949890 Zr
   0.7545515389899126    0.2436340325318894    0.9859992011945528 Zr
   0.0011242204727544    0.2451505963898633    0.7651366671610770 Zr
   0.9958906715086336    0.5090490241638732    0.0146776843482813 Zr
   0.7485202643708549    0.5139692922532652    0.2305226228989317 Zr
   0.7488260905643582    0.7399034742609809    0.4854341394976329 Zr
   0.0049724428966231    0.7416442687029742    0.2703094860743517 Zr
   0.9931468552127384    0.5001524189198953    0.5085871071847916 Zr
   0.7453472077033075    0.5276483074167958    0.7359668218921999 Zr
   0.7486881012860179    0.7455701372020739    0.9799653000497346 Zr
   0.0060067534400735    0.7440939916011182    0.7640812073419750 Zr
