0,0,0,0,0,0,0,0,0,0,0,0,0,0,0,0,0,0,0,0,0,0,0,0,0,0,0,0,0,0,0,0,0,0,0,0,0,0,0,0,0,0,0,0,0,0,0,0,0,0,0,0,0,0,0,0,0,0,0,0,0,0,0,0,0,0,0,0,0,0,0,0,0,0,0,0,0,0,0,0,0,0,0,0,0,0,0,0,0,0,0,0,0,0,0,0
1.0
  10.6650955549836546    0.0000000000000000    0.0000000000000000
   0.5213799454029232   10.9046743014788579   -0.0000000000000000
  -1.4116350680397773   -0.2900844086506676   10.3208124913590495
O Zr
64 32
direct
   0.0194331176050123    0.1632453907688408    0.1828848061797749 O
   0.4378693540229663    0.4403308053019888    0.0848947650810991 O
   0.4555295501197942    0.3238107937587515    0.3374402547101601 O
   0.0242440679242616    0.0810427350198592    0.4373905043115036 O
   0.2230094611413391    0.3763476110063549    0.2434848773586324 O
   0.2788960465362940    0.1282701906329513    0.0146468652372633 O
   0.2607776739974718    0.1246552939131096    0.2683148171927835 O
   0.2324358093324871    0.3746265954490773    0.4933249474169593 O
   0.0226482154041114    0.1637916842767816    0.6797130443725595 O
   0.4727218365465198    0.4349012972916997    0.5820553143204095 O
   0.4574669427899373    0.3144091971302067    0.8355749825432990 O
   0.0270694213835224    0.0868538844358508    0.9116149548378307 O
   0.2217884675576275    0.3738281664819059    0.7423733492120713 O
   0.2724693425493596    0.1273256376934673    0.5178619225835969 O
   0.2704368512687668    0.1211874762266005    0.7611041251623032 O
   0.2231165837133665    0.3639261191588490    0.9865683980040223 O
   0.0286217766977103    0.6795949451267420    0.1660037844243785 O
   0.4669718087730309    0.9086600144150961    0.0801738624350339 O
   0.4633087980287259    0.8173258526003864    0.3352472862574390 O
   0.0425034659367582    0.5917677584042677    0.4195926643590976 O
   0.2376570686912085    0.8817120816156485    0.2394867156795449 O
   0.2896828137123295    0.6365877023567628    0.0017209374663933 O
   0.2673141547393341    0.6273866680272597    0.2565165900278246 O
   0.2380787602690749    0.8624838872861685    0.4939488009561444 O
   0.0448500194662266    0.6658822140844112    0.6819354041062726 O
   0.4710105708040069    0.9188141972075916    0.5957639744494889 O
   0.4639606458566630    0.8189484971265167    0.8254520581235916 O
   0.0452392752485541    0.5828131291960696    0.9266850947255790 O
   0.2230384870079000    0.8793846038605335    0.7541677839624280 O
   0.2918847863284234    0.6336900546361587    0.5137983416169711 O
   0.2840887375814498    0.6260429006094662    0.7583451376190413 O
   0.2324901354777832    0.8792719069543120    0.9930724030187632 O
   0.5349302792923216    0.1698706321200831    0.1688537901215681 O
   0.9753300061156492    0.4167771506813429    0.0985906257818284 O
   0.9672467710566464    0.3353937441780875    0.3439110760196175 O
   0.5478538348702711    0.0796514056869071    0.4318298644638124 O
   0.7150773670659003    0.3934192830628925    0.2325645960634959 O
   0.7775361489623640    0.1155344845046797    0.9975814558902268 O
   0.7552227513719653    0.1241863601550568    0.2489895789746695 O
   0.7142604070109787    0.3825258849422335    0.4889684017828200 O
   0.5560912416396655    0.1750556451334004    0.6561099533073984 O
   0.9597890363147877    0.4197416525032178    0.5785368941155659 O
   0.9603039051017158    0.3299470451080790    0.8322385986269329 O
   0.5320494003288954    0.0790376850426265    0.9079941392158740 O
   0.7264203540676115    0.3951383885026562    0.7506692739730032 O
   0.7739701881528017    0.1356890856531746    0.5066752235909872 O
   0.7744599661968039    0.1121000938672096    0.7590031229574714 O
   0.7214919128278919    0.3789950333766922    0.9937360769984750 O
   0.5498645528759544    0.6833893928505973    0.1704134239792200 O
   0.9647626907356852    0.9220403850800527    0.0759779259100503 O
   0.9781357316132899    0.8508579592304046    0.3277231195249249 O
   0.5380544825929053    0.5824406563447715    0.4066235266761811 O
   0.7301519626240206    0.8875761412774456    0.2237092889472666 O
   0.7832434581096972    0.6245167170035726    0.0308015432279343 O
   0.7866454955659974    0.6344092137472745    0.2854641528529543 O
   0.7318539793418531    0.8652306357541103    0.4881426017300494 O
   0.5456025812869513    0.6814926465192848    0.6801121968717885 O
   0.9701639427745754    0.8959930725154269    0.5738779027677182 O
   0.9720081605111627    0.8358005057091048    0.8311331073965135 O
   0.5528227256092695    0.5777198017992616    0.9229742090630340 O
   0.7336472454660292    0.8805192134554694    0.7391289315532839 O
   0.7718399212936189    0.6264822275526002    0.5134409057655700 O
   0.7884058894228098    0.6203049086826838    0.7741254086622714 O
   0.7175621599654302    0.8795813459349165    0.9866347654049002 O
   0.1393418486059047    0.0108499122182484    0.1086955361934182 Zr
   0.3532436040735861    0.2743167931351552    0.1553082041691980 Zr
   0.3672563222201803    0.4863684489357169    0.3931604259255054 Zr
   0.1267645747647137    0.2201716572365207    0.3526099456943806 Zr
   0.1203630047566740    0.0161235833195431    0.6078959348164497 Zr
   0.3554990300802727    0.2707697055805084    0.6438481024593228 Zr
   0.3669816074151216    0.4793841055643785    0.9032270638193204 Zr
   0.1367124103006675    0.2295627482228653    0.8665277889010795 Zr
   0.1463091739951829    0.5119582884360785    0.0965465099219905 Zr
   0.3617755209772480    0.7716100637130301    0.1417427080110981 Zr
   0.3734020729123379    0.9641871200703713    0.3939018445692803 Zr
   0.1331907614750045    0.7313495694032519    0.3581601563922263 Zr
   0.1517094411177229    0.5199282522644376    0.6126402556672542 Zr
   0.3625151469759469    0.7741839465751060    0.6438936115314422 Zr
   0.3646439959962836    0.9790573821128722    0.8902873174077069 Zr
   0.1535684230844204    0.7315892891108424    0.8549438336165420 Zr
   0.6400156193986261    0.0300631407740503    0.0967654275219267 Zr
   0.8567732320870544    0.2772774747195400    0.1438418139989395 Zr
   0.8569649917785146    0.4807555696793579    0.4025315025322139 Zr
   0.6345025306707729    0.2384304671119424    0.3533987696272654 Zr
   0.6519754841287441    0.0190924784136967    0.6036228224876554 Zr
   0.8552526910049906    0.2755574142250542    0.6455423673163425 Zr
   0.8578486349199467    0.4823600680908174    0.8931543890093635 Zr
   0.6314149339123379    0.2255257156154085    0.8383472435667363 Zr
   0.6285686291250858    0.5242537125554948    0.0984540985557810 Zr
   0.8611343511211740    0.7640058873224859    0.1502519565488007 Zr
   0.8554587197053981    0.9705191584389978    0.3798575550308980 Zr
   0.6295306108782233    0.7275150092199737    0.3418887665921887 Zr
   0.6334250428058088    0.5311282241967168    0.6143989917178507 Zr
   0.8690952903405593    0.7578648606697173    0.6424998961711406 Zr
   0.8627663768479358    0.9675107239201439    0.8947604800427854 Zr
   0.6449098338970334    0.7391294765698769    0.8513931778197547 Zr
