2,2,2,2,2,2,2,2,2,2,2,2,2,2,2,2,2,2,2,2,2,2,2,2,2,2,2,2,2,2,2,2,2,2,2,2,2,2,2,2,2,2,2,2,2,2,2,2,2,2,2,2,2,2,2,2,2,2,2,2,2,2,2,2,2,2,2,2,2,2,2,2,2,2,2,2,2,2,2,2,2,2,2,2,2,2,2,2,2,2,2,2,2,2,2,2
1.0
  10.3332139267234719    0.0000000000000000   -0.0000000000000000
   0.4395975676789567   10.2915289608536451   -0.0000000000000000
  -0.2070309298570609    0.0871693584919062   10.7426094410656265
O Zr
64 32
direct
   0.1158957042648321    0.1469709724674742    0.1298018643468137 O
   0.1801575365783262    0.3361745066715576    0.3165706489802960 O
   0.1234339503982615    0.1161528019342385    0.3826133619256177 O
   0.1761143673553384    0.4071682797830815    0.0652329484790882 O
   0.4094217176914289    0.3960930098519654    0.1801920581791143 O
   0.4288426617151142    0.3346962035688528    0.4395030093853672 O
   0.3833005354396877    0.1068583913540219    0.3637120637155379 O
   0.3787310008918969    0.1394780858851367    0.1192613389445639 O
   0.1218146598266204    0.1349229117129494    0.6327077504947224 O
   0.1868778347713554    0.3352430827889247    0.8174010315624912 O
   0.1178178559276035    0.0999453661955284    0.8797542763001640 O
   0.1665367196936622    0.4076875378139683    0.5647961366263855 O
   0.4265123624042042    0.4057342169059303    0.6804879275192987 O
   0.4323683778730034    0.3353977842167488    0.9304411060306124 O
   0.3785515843682202    0.1081700035316150    0.8717062506063785 O
   0.3659833286051414    0.1442291540410932    0.6263713044502642 O
   0.1267511082035188    0.6377714556886777    0.1327066216193544 O
   0.1824377573279250    0.8544669841761099    0.3171440186847231 O
   0.1322535856799400    0.6093017721494539    0.3900681158231080 O
   0.2038814853521526    0.9273982851522402    0.0629391853356749 O
   0.4432676697932174    0.9169773970126853    0.1859560822311567 O
   0.4246531946784666    0.8448423974072439    0.4251592895428710 O
   0.3771882407263559    0.6038853741104124    0.3642276225963093 O
   0.3788507316479878    0.6433593438995566    0.1123136144545823 O
   0.1172667594813080    0.6290918920884668    0.6417868939407422 O
   0.1858525096547888    0.8325745906960235    0.8167328900053233 O
   0.1331749352157757    0.6010518960873557    0.8902796382078371 O
   0.1814980363809523    0.9081874819406798    0.5744277999636441 O
   0.4167056257353772    0.9037417924470271    0.6675600991493023 O
   0.4246632132248396    0.8418640520511944    0.9342338755549561 O
   0.3858166453479829    0.5953142189727826    0.8663014118734309 O
   0.3855386260432694    0.6396556577692722    0.6211977090398657 O
   0.6334026027567160    0.1311593310245459    0.1300643823798364 O
   0.6854124902939978    0.3334475826349793    0.3044948195636462 O
   0.6298752173245883    0.0967478649241177    0.3852574965984670 O
   0.6856461137882676    0.4093196630974613    0.0706905751313128 O
   0.9370897857732062    0.4158733291045579    0.1836512307855340 O
   0.9226254194328867    0.3379227886962738    0.4344327152916636 O
   0.8778532170123987    0.1090501809868283    0.3686904291111522 O
   0.8748186058013168    0.1449398254541006    0.1098950367856707 O
   0.6286104360299305    0.1496800501472480    0.6295783839302552 O
   0.6790490635970642    0.3489940076733556    0.8155406601034301 O
   0.6294953570780482    0.1116301536171683    0.8788274075859449 O
   0.6803462306037724    0.4097403717679414    0.5593941410480892 O
   0.9289645783346114    0.4091736714314212    0.6861780295224799 O
   0.9252623879616018    0.3470397023473996    0.9262370266635122 O
   0.8739782727153368    0.1215336229073014    0.8569625935583485 O
   0.8681006646507832    0.1437452663594612    0.6201078327426560 O
   0.6255255827434397    0.6364725426031934    0.1378678966898274 O
   0.6742917916709826    0.8407052191469517    0.3165327402391997 O
   0.6251996485935263    0.6046934923692396    0.3916470148785983 O
   0.6851903712747259    0.9022804021500004    0.0659862899315907 O
   0.9433610228263222    0.9152527415631587    0.1858461468838392 O
   0.9261724741280467    0.8401769562476493    0.4329921831300043 O
   0.8820405606456949    0.6155263056387830    0.3649962223155206 O
   0.8753252645774878    0.6475901700343649    0.1128661343551299 O
   0.6256063013933217    0.6491806804548731    0.6354248594951131 O
   0.6718751901222297    0.8458859705584895    0.8342457805774055 O
   0.6230884516233438    0.6010233183235402    0.8800878732180880 O
   0.6706416328452144    0.9157119090742036    0.5667645479901241 O
   0.9258671424643443    0.9063465139641143    0.6721404227727141 O
   0.9347115037950565    0.8445367792304590    0.9161978443501597 O
   0.8791594458128039    0.6217132748277902    0.8622338039761391 O
   0.8682145031400768    0.6463492939280668    0.6126019020428239 O
   0.5096919856528396    0.0009583902992519    0.0241513407448483 Zr
   0.2495367507977892    0.0240287374065824    0.2288943653206184 Zr
   0.2522767124425102    0.2476917582982707    0.4915460243127108 Zr
   0.5038106023036035    0.2324172743449706    0.2616892170680215 Zr
   0.4929415084107827    0.0101370777478287    0.5133208050848577 Zr
   0.2526852253991361    0.9974585695480449    0.7398122638545478 Zr
   0.2471860066950752    0.2388545155918780    0.9838725285959535 Zr
   0.4993817920367394    0.2472896074902264    0.7635336584745427 Zr
   0.5039381306895987    0.5105244292579368    0.0164855299330730 Zr
   0.2569412673884225    0.5007894403817343    0.2345759378691542 Zr
   0.2508124148290855    0.7394353831419864    0.4877684182829438 Zr
   0.4973418264533956    0.7355189861614319    0.2634785096421815 Zr
   0.4980912574665534    0.5062314048417000    0.5202457843283198 Zr
   0.2455517576837885    0.5104493700835873    0.7448200085273045 Zr
   0.2452139969908849    0.7453247242783387    0.9931791244885508 Zr
   0.4999945139765666    0.7451897569764893    0.7718508362226651 Zr
   0.0005242885451395    0.0109062058885515    0.0158084798234231 Zr
   0.7502183537960534    0.0015499508697304    0.2405636234918030 Zr
   0.7518878820587979    0.2399879700508227    0.4852721276985083 Zr
   0.9902339495831818    0.2404019362890897    0.2623564109131781 Zr
   0.0020988897770894    0.0077624537526936    0.5136534542814616 Zr
   0.7370248283588133    0.0121539304328845    0.7325887532796068 Zr
   0.7557131190044082    0.2529188361536414    0.9768309799745510 Zr
   0.0006815439295614    0.2296774263757680    0.7608601445152424 Zr
   0.9956939588342295    0.5076092691696334    0.0145605240754693 Zr
   0.7582307442982023    0.5111541268818409    0.2352080661185571 Zr
   0.7312993269329824    0.7458412463116639    0.4878527652383992 Zr
   0.9993275704858551    0.7526226399630042    0.2676560528867908 Zr
   0.9932194107116467    0.5019473624166568    0.5121759611093347 Zr
   0.7615227354916105    0.5112949477856976    0.7276956825514591 Zr
   0.7537263789796822    0.7350753466102453    0.9775228144995585 Zr
   0.9998384230366494    0.7471736064406974    0.7585751951614879 Zr
