1,1,1,1,1,1,1,1,1,1,1,1,1,1,1,1,1,1,1,1,1,1,1,1,1,1,1,1,1,1,1,1,1,1,1,1,1,1,1,1,1,1,1,1,1,1,1,1,1,1,1,1,1,1,1,1,1,1,1,1,1,1,1,1,1,1,1,1,1,1,1,1,1,1,1,1,1,1,1,1,1,1,1,1,1,1,1,1,1,1,1,1,1,1,1,1
1.0
  10.5247301812850917    0.0000000000000000    0.0000000000000000
   0.4645319413881543   10.2868915074354259    0.0000000000000000
  -0.2664822025424083    0.1515803571492812   11.1043925368127869
O Zr
64 32
direct
   0.8906602971663856    0.1332665876423264    0.1356141385589230 O
   0.1402263853450679    0.8684941541348175    0.8589114983085363 O
   0.1212261472439992    0.1623656008814555    0.1457625262826467 O
   0.9171598447184216    0.3526199463757366    0.0826302260441669 O
   0.1529313580345175    0.4088840011453139    0.6126976663644491 O
   0.4164506293478741    0.9457126143289020    0.3379232372108698 O
   0.4238383820015322    0.6607955954969688    0.5928456484833096 O
   0.1986744529058118    0.0954854744164558    0.4009534882020592 O
   0.6337738467345907    0.9211229960670897    0.5982779098789711 O
   0.1504809553126104    0.1709381636346252    0.6317609933855559 O
   0.3825008188780883    0.1602325580018049    0.6402160985872807 O
   0.1037145191832173    0.3349353091177832    0.8910603091071921 O
   0.8875270899147546    0.6522336113991363    0.8616723874430265 O
   0.1987667757682601    0.3593797112063063    0.3550341538927234 O
   0.1609297879805481    0.0990079764249255    0.9031837219596921 O
   0.8860037626343903    0.9083814789041991    0.5839486125605903 O
   0.1654266808894904    0.6831944690907117    0.6153878842760517 O
   0.4713942748066789    0.4518958779044100    0.3360725934289724 O
   0.4751747038168925    0.6942087793109565    0.3975584426131160 O
   0.8964516336043036    0.8845669880334616    0.0984228888322148 O
   0.1259586558088340    0.8816366987428893    0.0735890208213536 O
   0.3891567204771523    0.3969762748646512    0.6079297144729361 O
   0.4284622188548590    0.2107360506313076    0.3823264382023148 O
   0.1417997208406148    0.4138713592915351    0.1148773169600269 O
   0.1786932843564264    0.6600089277478817    0.1129022918312507 O
   0.4005989856533986    0.6447323785584848    0.8570372974523430 O
   0.4144454921093723    0.9021564173406195    0.8550311769800931 O
   0.1700543645344831    0.8354771892845713    0.3421380689943141 O
   0.1513618693203077    0.5958551147444070    0.8610382309975788 O
   0.3788896484539043    0.1302622477215623    0.8811569149561453 O
   0.2301248141249597    0.5924718663867417    0.3832159533349306 O
   0.8915392877860953    0.8941147110650686    0.8461124685526238 O
   0.3617839524984529    0.1199778651650666    0.1151910971950509 O
   0.6003250801520628    0.8534916884524436    0.0590317852531667 O
   0.6691008066237099    0.1849837412758793    0.3339194768203207 O
   0.3716038356405287    0.3723770396375370    0.1106106596131318 O
   0.7217527292755643    0.4471979904167477    0.3737686241494558 O
   0.9848536625982690    0.4687448008999845    0.3229880519361964 O
   0.9048366655391740    0.1925253653716118    0.3844663628511620 O
   0.3781789547334859    0.9185360324364563    0.5705681942074539 O
   0.1218675988203545    0.9203613324218325    0.6540817926709116 O
   0.6368464671159768    0.1157733279840950    0.8355654951264111 O
   0.8753597055687968    0.1298294842925921    0.6014355001554099 O
   0.6221642463757174    0.1777565919486127    0.6222514735221391 O
   0.3684812070428328    0.3845800067580282    0.8494585154234294 O
   0.6201725728864063    0.4166458537493926    0.8843031978423254 O
   0.8628413020037941    0.3934978185668225    0.8324371156239001 O
   0.6210015552871003    0.1499145160602398    0.0953446387805635 O
   0.7127801007601505    0.5899618384833928    0.0347110845570515 O
   0.6392834060858273    0.4110218525137609    0.1201380828512125 O
   0.9638761764557241    0.5953636878185243    0.1448155318869480 O
   0.3424576992737865    0.8447767946088244    0.1440136490671107 O
   0.6605590181516069    0.9370727328134533    0.3762034833828957 O
   0.9819685730457263    0.0021980271043030    0.2955610211652349 O
   0.9250380625910013    0.7028063461803019    0.3821879226018530 O
   0.6869547024708185    0.6720666786874798    0.3329508099108666 O
   0.6512113279966241    0.4294354557375776    0.6016343218642680 O
   0.9525041151369170    0.3842261024324096    0.5588697509770523 O
   0.9032037048469753    0.6454488424646724    0.6307932687608747 O
   0.6642028862599465    0.6815576616211958    0.5747764300064931 O
   0.6430705669798580    0.9008610121324234    0.8396710220833214 O
   0.8858681634250920    0.1691994163363216    0.8622537760492557 O
   0.6379976178460824    0.6420357815272498    0.8102736775894376 O
   0.4244519443782592    0.6244146162255871    0.1290662141084002 O
   0.0101887249993564    0.0173504116546207    0.9963397021873964 Zr
   0.0369157522397817    0.2901394853130271    0.2515837320806610 Zr
   0.2472622460696799    0.0229089309681937    0.2340695182814592 Zr
   0.2426653367172592    0.2465948286892598    0.9947283982875493 Zr
   0.0545602867659592    0.0144159197484040    0.4940340857920169 Zr
   0.0073768878767624    0.2866119824860897    0.7029391653278512 Zr
   0.2793290547627764    0.0377284819659898    0.7480396557184532 Zr
   0.2897307642961177    0.2779817179361846    0.5053348856047023 Zr
   0.0221153389998309    0.5151341558234530    0.9599581562306326 Zr
   0.0308496591141456    0.7731448294832253    0.2293684684827475 Zr
   0.3106245828374466    0.5058643630898773    0.2148318689105631 Zr
   0.2544865103124637    0.7899966375710826    0.9905163933584238 Zr
   0.0830737229917601    0.5123865888719349    0.4746682859351502 Zr
   0.0130705255481821    0.7826108083110512    0.7146442045336523 Zr
   0.2975618590375058    0.5387514989091182    0.7204693979321709 Zr
   0.3071951730629085    0.7474511836255853    0.4664129447180509 Zr
   0.5125616176393769    0.0271857877287375    0.9713409346654699 Zr
   0.5139849284903716    0.2447676053005362    0.2231305551371624 Zr
   0.8064464565027697    0.0366576328972660    0.2749448117831313 Zr
   0.7726986022991574    0.2842500558388490    0.9666106740928301 Zr
   0.5230219906636870    0.0321429485976124    0.4464883710534834 Zr
   0.5062990499174994    0.2648872581524772    0.7429155208581838 Zr
   0.7704520792337261    0.0322711427419108    0.7338243746414654 Zr
   0.7657416896962408    0.2963453129464331    0.5017956707156652 Zr
   0.4905454992551925    0.5011337779158317    0.9869639865095821 Zr
   0.5229363996753357    0.7730380811695268    0.2327456106880215 Zr
   0.7820847603105152    0.5125423837118542    0.2008003330130829 Zr
   0.7457691764105080    0.7602119347149476    0.9514889167843302 Zr
   0.5893271187752034    0.5458767084106649    0.4502763486452837 Zr
   0.5459594143072879    0.7740642113574555    0.7181494972339023 Zr
   0.7691999503687905    0.5280939780948896    0.7320679591657571 Zr
   0.7779600439465552    0.8018283898233237    0.4879205538023160 Zr
