0,0,0,0,0,0,0,0,0,0,0,0,0,0,0,0,0,0,0,0,0,0,0,0,0,0,0,0,0,0,0,0,0,0,0,0,0,0,0,0,0,0,0,0,0,0,0,0,0,0,0,0,0,0,0,0,0,0,0,0,0,0,0,0,0,0,0,0,0,0,0,0,0,0,0,0,0,0,0,0,0,0,0,0,0,0,0,0,0,0,0,0,0,0,0,0
1.0
  10.1397897698184760    0.0000000000000000   -0.0000000000000000
   0.4102267342367587   10.8093019709741949    0.0000000000000000
  -2.0176196626580229    0.1235232426531297   10.7242631660366783
O Zr
64 32
direct
   0.0521651996822640    0.1902599015448108    0.1678291501182138 O
   0.4858874813780608    0.3915343253739587    0.0743017753912954 O
   0.4838802226139118    0.3224209194069727    0.3256782133210899 O
   0.0107637866713493    0.1062998060267526    0.3979937260787472 O
   0.2397945691352909    0.3707268192919490    0.2235529560382853 O
   0.2793963674038288    0.1337380763299681    0.0000744599314318 O
   0.2857434092421159    0.1348947381382961    0.2659535635728025 O
   0.2138379976428305    0.3898623192036577    0.4696271153294799 O
   0.0509257619063528    0.1607793406030286    0.6646945422110896 O
   0.4590860451153365    0.4331884655391148    0.5703881255984351 O
   0.4544195078334425    0.3112608507873831    0.8168639798437075 O
   0.0342595330647699    0.0827396929749244    0.8945749000344131 O
   0.2233210170580269    0.3680680240846460    0.7168011987662658 O
   0.2665849860336614    0.1346637875153895    0.4990399018600226 O
   0.2920005434538006    0.1065660672881936    0.7656052406940643 O
   0.2344347628331959    0.3841773073384345    0.9709026253454016 O
   0.0132063543518159    0.6527976968228707    0.1907579737952323 O
   0.4678965853583643    0.9112171308195630    0.0731834718104973 O
   0.4522698563917580    0.8358537428554622    0.3349844621751902 O
   0.0306526729208231    0.6002516579840372    0.4250446599758880 O
   0.2192343916470719    0.8818654059626171    0.2371471090390903 O
   0.2596645214643779    0.6311818635549852    0.0177680425545190 O
   0.2839380181236334    0.6230308334480135    0.2759239354523948 O
   0.2253473619069148    0.8681658348113903    0.4921855080464880 O
   0.0274360832018259    0.6593778809491169    0.6910425099479187 O
   0.4676250249154126    0.9086871717069601    0.5724534439850768 O
   0.4607316913890587    0.8268800704377581    0.8317427987732293 O
   0.0227966491619863    0.5878709866817037    0.9283864357815358 O
   0.2340541548173638    0.8789193539894059    0.7635171848571918 O
   0.2728879400756484    0.6185988718656412    0.5131068043468768 O
   0.2468482519258852    0.5966585625172250    0.7734809249804668 O
   0.2435845024701273    0.8667114184763789    0.9910536905285460 O
   0.5412436260744896    0.1532572214938300    0.1642053690063257 O
   0.9446893445358026    0.4206522365896454    0.0683460792925392 O
   0.9738358618572037    0.3482053160182794    0.3114417273512641 O
   0.5354400127456410    0.0964155964622959    0.4470469325560006 O
   0.7347877176307450    0.3741395442301978    0.2507668416714049 O
   0.7655425201162797    0.1224806648845562    0.0175730689262494 O
   0.7580733908590572    0.1109569921840855    0.2629219035513509 O
   0.7380651171219319    0.3601994790370833    0.4951186391076147 O
   0.5334602252482878    0.1690029006571962    0.6771035056186129 O
   0.9536582234596742    0.4272572335886404    0.5878230128820805 O
   0.9581370028310553    0.3340323915138842    0.8293989466212600 O
   0.5409164736739239    0.0872536324785775    0.9133664551818309 O
   0.7220250284682782    0.3829815175305917    0.7341602945491418 O
   0.7602873674990932    0.1255269227131671    0.5185543184460287 O
   0.7659212113603149    0.1246059832370275    0.7718353020293357 O
   0.7125877911916756    0.3803475352024371    0.9833040096121727 O
   0.5268541899820333    0.6473255030885695    0.1926233920985947 O
   0.9665156777655909    0.9165776666074352    0.0555020726631397 O
   0.9657137663255778    0.8461596758993328    0.3170654566803803 O
   0.5228905986713164    0.5935855831255946    0.4343158552702072 O
   0.7074328167416191    0.8697987129889099    0.2422005073342413 O
   0.7670223230611436    0.6347291506295165    0.0201802965340677 O
   0.7578399319986383    0.6298391051710001    0.2591768560382318 O
   0.7065561232964965    0.8863183630505722    0.5049307962386755 O
   0.5300159763135797    0.6680137164951792    0.6732807718172052 O
   0.9845704481360479    0.9252402237178609    0.5700527482075305 O
   0.9594304213344564    0.8293374996041460    0.8358402767649261 O
   0.5260893322428910    0.5834046688070155    0.9166444375714584 O
   0.7294595904071565    0.8903208709883595    0.7380787151295956 O
   0.7808862695689142    0.6409734065741097    0.5075380238558186 O
   0.7653934860291234    0.6281174732418756    0.7749048578011721 O
   0.7233918096868835    0.8650518187446203    0.0124174197180965 O
   0.1288873319757727    0.0166928723034540    0.0943271214290659 Zr
   0.3709820317396401    0.2577852833956484    0.1501109921097673 Zr
   0.3618515058018404    0.4826624793395053    0.3818160303047896 Zr
   0.1479095655692091    0.2340660816244212    0.3525150362285571 Zr
   0.1612155489833644    0.0201338457441885    0.6203470405098829 Zr
   0.3709491774717119    0.2807658249006018    0.6277045004190991 Zr
   0.3710626785913891    0.4590539811786095    0.8910003833980251 Zr
   0.1388393340302784    0.2350080166127621    0.8379539122333083 Zr
   0.1303260707531006    0.5146357800930000    0.1058733880846762 Zr
   0.3591623382619978    0.7646312423297785    0.1398497703366477 Zr
   0.3678139816739850    0.9864469109869102    0.4093482402318162 Zr
   0.1357898212350513    0.7258124505417599    0.3433925817544978 Zr
   0.1164806119113364    0.5214812711248321    0.5994238494219747 Zr
   0.3661815794187838    0.7776608658036337    0.6461748890726819 Zr
   0.3702461576547003    0.9775619923260638    0.8972929727214314 Zr
   0.1348414015105156    0.7359695063204097    0.8606932571584034 Zr
   0.6367749591949150    0.0164792906897170    0.1005300872990823 Zr
   0.8733362079183433    0.2795805328473037    0.1527873794620377 Zr
   0.8666116481530646    0.5003712388137889    0.3877798739936085 Zr
   0.6549636948884846    0.2212158743386514    0.3600998706400816 Zr
   0.6317087731390950    0.0228905563850970    0.6205744150121910 Zr
   0.8671294635065212    0.2729096862890988    0.6444411585019064 Zr
   0.8583777544183299    0.4734225456625038    0.8830706976579999 Zr
   0.6366625514160509    0.2282426902474723    0.8601769275594118 Zr
   0.6331639385004330    0.5137692380737517    0.1159489206715861 Zr
   0.8418671622070002    0.7680955017004537    0.1445081054340381 Zr
   0.8688772161339819    0.9824482204193302    0.4014384497700675 Zr
   0.6356531744235785    0.7413796678604115    0.3731928523420489 Zr
   0.6317107360298073    0.5183844332020503    0.6015734858532223 Zr
   0.8656672738439443    0.7877921543674297    0.6350865925567408 Zr
   0.8507888752135437    0.9660144610840669    0.8994520830902751 Zr
   0.6398760443067008    0.7093805998922854    0.8574143273656916 Zr
