1,1,1,1,1,1,1,1,1,1,1,1,1,1,1,1,1,1,1,1,1,1,1,1,1,1,1,1,1,1,1,1,1,1,1,1,1,1,1,1,1,1,1,1,1,1,1,1,1,1,1,1,1,1,1,1,1,1,1,1,1,1,1,1,1,1,1,1,1,1,1,1,1,1,1,1,1,1,1,1,1,1,1,1,1,1,1,1,1,1,1,1,1,1,1,1
1.0
  10.6682023831732860    0.0000000000000000   -0.0000000000000000
   0.2965068700388059   10.6350014696620789   -0.0000000000000000
   0.0041993982927397   -0.1701983903759582   10.0718146871521466
O Zr
64 32
direct
   0.1641460298837463    0.1559403247119248    0.1702819458332328 O
   0.4084798543437325    0.1610338566022180    0.0957375777405856 O
   0.3779605090255197    0.3704905146080556    0.1434404314788378 O
   0.1008328641219571    0.3914903855614525    0.1247972595845490 O
   0.1463206146114718    0.3606041580218174    0.3490664553116485 O
   0.3800275059132004    0.3799340823202251    0.3997249268928277 O
   0.3985244032195375    0.1168396335441796    0.3369195973620021 O
   0.1454116809488146    0.1139814556417675    0.4116982446757523 O
   0.1259425944265697    0.1316394869827180    0.6438587502778623 O
   0.3729623470468595    0.1679510947741918    0.5968179236625381 O
   0.3663029968978572    0.4024987983773342    0.6653376828654484 O
   0.1043831551107549    0.3749836053056653    0.6066248499581537 O
   0.1005562913735867    0.3904948404439068    0.8490099224629256 O
   0.3467103187522000    0.3907653795879062    0.9034099962449545 O
   0.3525522125099182    0.1247786922213259    0.8470370949916908 O
   0.1122745288265952    0.1421107141667287    0.9038981971454609 O
   0.1605988530178704    0.6629851719756980    0.1671172216310828 O
   0.3856387601859275    0.6326429422063924    0.0999551758318399 O
   0.3986012830467831    0.8890858261344220    0.1406380438876518 O
   0.1426702825311652    0.8980243225774888    0.0699578049920644 O
   0.1060453164533796    0.8848642477457893    0.3456156759059933 O
   0.3747500463363097    0.8862587894294477    0.3899399314911831 O
   0.3878711946724345    0.6431482300791189    0.3424776501895038 O
   0.1569991253799767    0.6201854906107988    0.4160567726435075 O
   0.1280504641384388    0.6415454316411021    0.6493881975850135 O
   0.3849264053207297    0.6447792502174750    0.5944322231660177 O
   0.3718042838192708    0.8927575677866559    0.6366654151291906 O
   0.1090660124729838    0.8791634625350563    0.6022253207395984 O
   0.1112351914098378    0.8599074985757115    0.8424850029979328 O
   0.3958832405297674    0.8733069713501203    0.8771310571439773 O
   0.3864231290615578    0.6339489261167748    0.8461865574901494 O
   0.1093871560530158    0.6306343350615761    0.9382381722088620 O
   0.6481969964873520    0.1169632251681026    0.1482089719148792 O
   0.8801726319206804    0.1159472436462258    0.0923125432982815 O
   0.8742548315082296    0.3482751638590807    0.1558046913930769 O
   0.6150170252300395    0.3586977329243626    0.0725651029235383 O
   0.6425205403404263    0.3650904365747407    0.3439565556561623 O
   0.8959621914941803    0.3632151526734279    0.3928500665473204 O
   0.9079087328476915    0.1040396287941995    0.3402244886188339 O
   0.6297944959298650    0.1161039227892486    0.3808080955056258 O
   0.6219936263147859    0.1364780503247028    0.6433734099244267 O
   0.8776005637540810    0.1494425195147006    0.5724088321496050 O
   0.8494090228450168    0.3542095080371423    0.6452423040000903 O
   0.6044222064242342    0.3836029044857272    0.5744894070758625 O
   0.5909010883444985    0.3917872000786708    0.8400335098095706 O
   0.8604563621565460    0.3296429969726973    0.8857365515352276 O
   0.8765038097619059    0.0835264363474425    0.8403386353699049 O
   0.6271893402436659    0.1136904800916281    0.8942161816270069 O
   0.6372255638421249    0.6100208095764079    0.1568354436877198 O
   0.9004436042430704    0.6125743876631544    0.1308940497368073 O
   0.8838171250231291    0.8524608600542276    0.1608316350445110 O
   0.6276019610914393    0.8620406705033405    0.0904974276048484 O
   0.6259252023166131    0.8581159066354154    0.3456318856958943 O
   0.8724272325568090    0.8830278903353989    0.3935251568573788 O
   0.8927896821461061    0.6213737218767935    0.3778998674841786 O
   0.6379719793885407    0.6023104440598188    0.4062994292498327 O
   0.6355682683144733    0.6469532949706254    0.6558044160627458 O
   0.8790875558678221    0.6105657805151181    0.6250582480166813 O
   0.8619287568302485    0.8724690785378905    0.6449800867252462 O
   0.6180756745835088    0.8878168223938397    0.5809189747964248 O
   0.6397557860289962    0.8722773655564298    0.8295390974833758 O
   0.8699077151617997    0.8430659504674873    0.9173666301948736 O
   0.8836283315270574    0.5880867027568756    0.8757808765337892 O
   0.6334350963885705    0.6266268523888342    0.9051225134661067 O
   0.9950816991445738    0.9940696102691748    0.9834730369032223 Zr
   0.0167609770646711    0.2479090352095323    0.2480155435233005 Zr
   0.2556359444884447    0.9779083026657870    0.2630076973496230 Zr
   0.2507711057607739    0.2458216019039467    0.0174908923438316 Zr
   0.0023901485960480    0.0067826303432719    0.5026504538609095 Zr
   0.9790537147856629    0.2456444863572658    0.7185048586756908 Zr
   0.2421761356410951    0.9967791118181841    0.7518074068279981 Zr
   0.2423357342687213    0.2717943326030072    0.4960959753631853 Zr
   0.9985753520785668    0.4674807429717948    0.9871250084835693 Zr
   0.0060720203685481    0.7469311318351217    0.2567459486917124 Zr
   0.2585223440947070    0.5069960013179176    0.2557590581949403 Zr
   0.2465456347154114    0.7485533935134527    0.9961452829347951 Zr
   0.0044331020381002    0.5031773121492439    0.5081942039332003 Zr
   0.9779511218059531    0.7415261879906405    0.7492481661647559 Zr
   0.2443219586873415    0.5141633422243159    0.7754536844351312 Zr
   0.2454586123364482    0.7593360326638625    0.5017856135942282 Zr
   0.4997897339082978    0.0030603202629875    0.9895946185064511 Zr
   0.5092459527303757    0.2422676129016282    0.2351401982823459 Zr
   0.7629338139728010    0.9965706375783012    0.2672937579892282 Zr
   0.7503712608371357    0.2223956371520482    0.0064606137345840 Zr
   0.4915353706259883    0.0206224853714454    0.4942776177117720 Zr
   0.4816869673614952    0.2642727605856892    0.7613969311590211 Zr
   0.7302238801353814    0.0035146021849438    0.7317473081093701 Zr
   0.7321380905344971    0.2561818885831483    0.5035009913624510 Zr
   0.4993235891350873    0.5039363788003457    0.0161998298090346 Zr
   0.5122316149080370    0.7482312767674653    0.2239945335846825 Zr
   0.7887089927009857    0.4893467284353374    0.2582505991217219 Zr
   0.7644392961683307    0.7310715045662027    0.0231695651229246 Zr
   0.4831068112732053    0.5139531391495005    0.5050924118758214 Zr
   0.4991951316968402    0.7672585475740644    0.7430360004087860 Zr
   0.7414142743180111    0.5085715512010972    0.7610317340009863 Zr
   0.7498233704213954    0.7487412138598984    0.4813431543954265 Zr
