2,2,2,2,2,2,2,2,2,2,2,2,2,2,2,2,2,2,2,2,2,2,2,2,2,2,2,2,2,2,2,2,2,2,2,2,2,2,2,2,2,2,2,2,2,2,2,2,2,2,2,2,2,2,2,2,2,2,2,2,2,2,2,2,2,2,2,2,2,2,2,2,2,2,2,2,2,2,2,2,2,2,2,2,2,2,2,2,2,2,2,2,2,2,2,2
1.0
   9.9725030566559294    0.0000000000000000   -0.0000000000000000
  -0.2194738843102415   10.2859176931078018    0.0000000000000000
  -0.1973217028034562   -0.2525406020079667   10.6589532486913754
O Zr
64 32
direct
   0.1196088710398254    0.1384876664251916    0.1279582134641082 O
   0.1738010951354527    0.3394774303975820    0.3276622170032303 O
   0.1180495780072014    0.0984158089021767    0.3758643129607370 O
   0.1806744967034337    0.4050503324382613    0.0779686168059731 O
   0.4305909472953194    0.4098583130240833    0.1927132061726783 O
   0.4390288643000574    0.3339031922943396    0.4375943627553341 O
   0.3727845040346223    0.0981359178013493    0.3694725347147480 O
   0.3623661869655680    0.1389062271828874    0.1175631685647787 O
   0.1198298716693945    0.1429439738574030    0.6256399294479247 O
   0.1799456354686306    0.3463574393350236    0.8173288760478968 O
   0.1150114526198718    0.1041647230489275    0.8750215646498942 O
   0.1787904588250336    0.4114418582442094    0.5711710685425372 O
   0.4249070489473057    0.4033306632960521    0.6815142428635614 O
   0.4353832726080429    0.3378168501830957    0.9388758933930624 O
   0.3647001832082944    0.1016957198890257    0.8777794337120940 O
   0.3696824873801587    0.1390499043139629    0.6188295460822868 O
   0.1271859481340160    0.6435291788077440    0.1352714912298747 O
   0.1886932917761776    0.8360965649711715    0.3192162430225252 O
   0.1225696900667549    0.6072051431227143    0.3829483996752810 O
   0.1665515412898721    0.9015936321910616    0.0780363323389302 O
   0.4347685586477349    0.9064469167394522    0.1875156837230136 O
   0.4291915479763778    0.8290352110693184    0.4390206508011951 O
   0.3694948796604176    0.6103389172821503    0.3725760844656639 O
   0.3717058021644225    0.6386542067470750    0.1213059908540967 O
   0.1333442347132165    0.6394409830614168    0.6389140684181254 O
   0.1810711919739971    0.8396803008883800    0.8178204055890967 O
   0.1284335669322771    0.6059572351188975    0.8902419333310233 O
   0.1878435096597335    0.9102956026354120    0.5626616408451095 O
   0.4379503493671516    0.9165611494339051    0.6870413458187444 O
   0.4272191903663994    0.8388717170413231    0.9424946494566314 O
   0.3756335374265811    0.6041264151962864    0.8717068181944356 O
   0.3760407041717201    0.6434522533559801    0.6258151374778718 O
   0.6233494944166168    0.1428692354226796    0.1259580007412859 O
   0.6803503919727700    0.3297333934241471    0.3084698349909426 O
   0.6230924798031359    0.0916387074984878    0.3741529567164230 O
   0.7009207563077084    0.4178700444003348    0.0568192084878837 O
   0.9298005901361075    0.4107486122180588    0.1895319966477971 O
   0.9304130727058983    0.3468115341552248    0.4437910444893598 O
   0.8701854855739114    0.1086054920674324    0.3744560192427922 O
   0.8815731875852956    0.1440008216027514    0.1211658244357682 O
   0.6199963473818250    0.1541308116044443    0.6215760502949396 O
   0.6717655688644160    0.3469709980991697    0.8114788220749465 O
   0.6168904216863113    0.1075673562200950    0.8794983665165182 O
   0.6824044800964506    0.4175183458023354    0.5556495314797574 O
   0.9382601858023047    0.4130786414206398    0.6926243259211580 O
   0.9356724214113333    0.3387317704076896    0.9359039864280058 O
   0.8745115507866300    0.1164545859863619    0.8686420983258114 O
   0.8720972826300913    0.1489850043193840    0.6225098617272415 O
   0.6191992137364963    0.6343622565703820    0.1321177467377383 O
   0.6778968999109246    0.8411212346992335    0.3265191030111039 O
   0.6223809137853541    0.5972109523474037    0.3799386098909100 O
   0.6758790970018720    0.9034717300491871    0.0717558348699861 O
   0.9326798500969132    0.9073017616797713    0.1837624436658896 O
   0.9319292079454532    0.8390087231840860    0.4280876699088821 O
   0.8714258581700467    0.6091186974125697    0.3672270307481236 O
   0.8811040157212338    0.6468924235296432    0.1156320919834524 O
   0.6224339997083755    0.6403746158550047    0.6334778842217912 O
   0.6849119114895759    0.8414786276701987    0.8058295470387328 O
   0.6242810357594549    0.6130648527355194    0.8794576424895081 O
   0.6878824119915128    0.9093767430141213    0.5657348843462030 O
   0.9452150706683560    0.9081239959566259    0.6850269270386793 O
   0.9269273670073186    0.8402741357118499    0.9352685021790406 O
   0.8763662662028080    0.6066170841422217    0.8724322741298904 O
   0.8756536858266269    0.6519888786801148    0.6157136844094647 O
   0.5026450118445394    0.0091897501869310    0.0150330410746170 Zr
   0.2382564427267991    0.0089123105749732    0.2364697535951244 Zr
   0.2482291758973084    0.2425865265774889    0.4851439271895551 Zr
   0.4943888182461239    0.2352947936570780    0.2661746172259760 Zr
   0.5009317349207256    0.0037825060945046    0.5107498700651849 Zr
   0.2467072032225425    0.0134841108204515    0.7331068509057738 Zr
   0.2498613844823339    0.2379044726773928    0.9776413797179724 Zr
   0.5021074768280950    0.2403173866413920    0.7612935606689379 Zr
   0.5117127878958355    0.5069747497521924    0.0181593205152451 Zr
   0.2576737331359895    0.5082815899498758    0.2326435891070677 Zr
   0.2473399786894248    0.7380277880304654    0.4782293660801845 Zr
   0.4993083460587808    0.7450143132401520    0.2699676342471327 Zr
   0.4953790758125590    0.5135307428701599    0.5184088285290493 Zr
   0.2464971130077787    0.5094573848617819    0.7255217639358195 Zr
   0.2468858034373038    0.7426702274649416    0.9914023128769585 Zr
   0.4974184232507545    0.7355114499481883    0.7654691941351476 Zr
   0.9965423538999908    0.0118616449088979    0.0108567351784011 Zr
   0.7468695647209254    0.0065736521461089    0.2360483072583979 Zr
   0.7509530993863198    0.2434334936109100    0.4775976701112744 Zr
   0.9945366711288037    0.2446685332786771    0.2681568356115003 Zr
   0.0028823470099078    0.0070026460502050    0.5230722032657856 Zr
   0.7431856975764684    0.0118010627226423    0.7325158789732555 Zr
   0.7473320421114406    0.2447826192326193    0.9783895653431396 Zr
   0.0040894897870147    0.2414785161983044    0.7652901978251455 Zr
   0.0070696772104673    0.5075853522665111    0.0201256281170327 Zr
   0.7509176381332147    0.5059967517008510    0.2390893503649505 Zr
   0.7465015366538212    0.7440402563653606    0.4827137444975370 Zr
   0.0053261301781174    0.7382326819755293    0.2663337250633435 Zr
   0.9974473310840322    0.5113266633705900    0.5176776901688208 Zr
   0.7534105044508250    0.5165984837831090    0.7301065318262313 Zr
   0.7533978109345548    0.7426840171558114    0.9828597377126310 Zr
   0.0076027173021034    0.7404986965244071    0.7686854452716473 Zr
