2,2,2,2,2,2,2,2,2,2,2,2,2,2,2,2,2,2,2,2,2,2,2,2,2,2,2,2,2,2,2,2,2,2,2,2,2,2,2,2,2,2,2,2,2,2,2,2,2,2,2,2,2,2,2,2,2,2,2,2,2,2,2,2,2,2,2,2,2,2,2,2,2,2,2,2,2,2,2,2,2,2,2,2,2,2,2,2,2,2,2,2,2,2,2,2
1.0
  10.2023493549749595   -0.0000000000000000   -0.0000000000000000
  -0.2413715749901723   10.4747189875542741    0.0000000000000000
  -0.2468545525510837    0.3769550103794717   10.1997574061084535
O Zr
64 32
direct
   0.1298096409250118    0.1321212751339946    0.1463960328807180 O
   0.1790437946263800    0.3347198657402330    0.3197663042011883 O
   0.1216238049348676    0.1036584285281993    0.3954541318487033 O
   0.1792934057310415    0.4033551308687258    0.0644866198686340 O
   0.4160079434920901    0.4022082244940654    0.1626729748990226 O
   0.4501208584417532    0.3434231946615018    0.4256491209683028 O
   0.3800639774105426    0.1152491459306224    0.3657052158089669 O
   0.3913816057501093    0.1452568946220425    0.1251829898263390 O
   0.1198523449784618    0.1557900393043572    0.6392841031194489 O
   0.1875021636817799    0.3298914437380719    0.8013333799199078 O
   0.1279600472300037    0.1058557764910575    0.9006205525828096 O
   0.1817712163573619    0.4144916960497571    0.5611986326725716 O
   0.4269831129008504    0.4034562225953762    0.6700215624645351 O
   0.4466827527872747    0.3371638605547485    0.9467928965071816 O
   0.3702565229537345    0.1114614649676159    0.8716220221939531 O
   0.3762027081609459    0.1397670696458192    0.6215706545729376 O
   0.1178484381130269    0.6381982086026383    0.1383166287518857 O
   0.1706178536386981    0.8357719292292619    0.3162629294073330 O
   0.1150692976044305    0.5935128882310771    0.3840329599068849 O
   0.1699430159365743    0.8990609583839434    0.0764488444335956 O
   0.4380528095105585    0.9054734676963742    0.1743833382875153 O
   0.4404218372190687    0.8506214568577536    0.4369568844971616 O
   0.3800345225186886    0.6196150868892913    0.3645739669232738 O
   0.3635430740270478    0.6355250980439500    0.1122024522479933 O
   0.1283114295626897    0.6452346857186815    0.6323123211281034 O
   0.1816400249964460    0.8255225823723120    0.8081596211262236 O
   0.1203939274742445    0.5945672822138831    0.8901860338131513 O
   0.1824635081368119    0.9119635497186571    0.5712305515924001 O
   0.4245034631712945    0.9059342729312168    0.6791320380474494 O
   0.4313459128939922    0.8571075853542548    0.9361731439986435 O
   0.3719574861572298    0.6127769078106429    0.8736898355310987 O
   0.3647321291409550    0.6515813770750464    0.6063975544061321 O
   0.6339474009696485    0.1383411890415488    0.1249174251278710 O
   0.6771432175009109    0.3396670993960627    0.3061261077082130 O
   0.6152595893015463    0.1037861947859038    0.3634578391521189 O
   0.6873992853622389    0.4075230286731234    0.0714780593177030 O
   0.9357566852065267    0.4030848427707501    0.1928651288139356 O
   0.9156224587383618    0.3418625642561711    0.4357746018192640 O
   0.8647294195711109    0.1121200285034668    0.3608570062848477 O
   0.8793404201993913    0.1536290561177950    0.1225859372352513 O
   0.6308549776931029    0.1480232629596649    0.6285613379648091 O
   0.6807237188662715    0.3413376870462774    0.8074612143292410 O
   0.6203815079839295    0.1090360033505164    0.8792818152056193 O
   0.6885687520016462    0.4197229461125951    0.5576338283196539 O
   0.9361250928368191    0.4048605873332404    0.6886073106889459 O
   0.9331804565744811    0.3382036257653606    0.9395111315256419 O
   0.8582819361000418    0.0973926168131860    0.8772650356508741 O
   0.8749758870399080    0.1461933618913024    0.6090437506366264 O
   0.6206044147475047    0.6462519567557882    0.1266497385934263 O
   0.6724640710430645    0.8521427989306962    0.3256937837472992 O
   0.6319770847129013    0.6087869974844299    0.3777576945597240 O
   0.6815185334610934    0.9052926638766907    0.0621732773193427 O
   0.9070769340016767    0.9050105862631540    0.1739627820988523 O
   0.9261410031919808    0.8472387858945830    0.4348304768056403 O
   0.8738035072387902    0.6045817552656818    0.3680990783223417 O
   0.8660796954204210    0.6371240530882563    0.1163465845559525 O
   0.6103650898050710    0.6464985194596565    0.6319087761969725 O
   0.6919277736306739    0.8318899060115306    0.8084355815817451 O
   0.6233986448302954    0.6069776201870076    0.8788688195791274 O
   0.6780823736564562    0.9171043877813319    0.5574674959911042 O
   0.9244165482518656    0.9124775109375999    0.6806280839917246 O
   0.9498284104966170    0.8425479490808440    0.9240526201981498 O
   0.8683588108566157    0.6027026042356716    0.8579789904864871 O
   0.8727067852630528    0.6447266009207248    0.6147604795624614 O
   0.5007464438248334    0.0160361190606396    0.0128812570602234 Zr
   0.2458572752481080    0.0100393357082016    0.2401394244468127 Zr
   0.2515245188453817    0.2483516402714920    0.4774503022967504 Zr
   0.5114854678472156    0.2482593078672726    0.2617011983639346 Zr
   0.5038030213459763    0.0143181392078332    0.5119255138139782 Zr
   0.2547592718956491    0.0085629386806747    0.7394908289762711 Zr
   0.2601209791682579    0.2490168589639776    0.9881623942706574 Zr
   0.5043867510221457    0.2354940820801565    0.7752985893041069 Zr
   0.4981003138914047    0.5252453114208501    0.0250031984630604 Zr
   0.2464046281862697    0.5023056021932630    0.2404257806789964 Zr
   0.2452216963240949    0.7460288923012185    0.4837000507429070 Zr
   0.5112973670866200    0.7491708359067923    0.2595398230858523 Zr
   0.4970183835563974    0.5134972509228098    0.5147843508077422 Zr
   0.2570830610460209    0.4996667771364876    0.7210458961794057 Zr
   0.2475927685372005    0.7305984155337599    0.9826998891951316 Zr
   0.4901633765496719    0.7376094954003514    0.7723272889688803 Zr
   0.9999005788724172    0.0061009010429886    0.0196508885672088 Zr
   0.7502506345805950    0.0114935537205724    0.2244890638897665 Zr
   0.7441594787521175    0.2476863073802761    0.4870352030652188 Zr
   0.0069254696791243    0.2437130424831261    0.2715270920111678 Zr
   0.9972958436178196    0.0039802720778736    0.5149251662548957 Zr
   0.7416947217365559    0.0036549583657737    0.7315711416853141 Zr
   0.7527725826658842    0.2393847966041614    0.9828321990086171 Zr
   0.9997147702127442    0.2344562849127614    0.7711261048904567 Zr
   0.0015261788132425    0.5102178779537632    0.0213257417641848 Zr
   0.7471599050343972    0.4991578133789730    0.2305129405913049 Zr
   0.7460494452272851    0.7330406926397864    0.4806370786097374 Zr
   0.9932217686756437    0.7423534026049022    0.2777494334231303 Zr
   0.9977462497264875    0.5011655340106503    0.5261166861563041 Zr
   0.7426014752940586    0.5089951639159764    0.7341133802080138 Zr
   0.7544304520325597    0.7541523056696596    0.9777382712678570 Zr
   0.9983240892431451    0.7303684987728454    0.7555229978396274 Zr
