2,2,2,2,2,2,2,2,2,2,2,2,2,2,2,2,2,2,2,2,2,2,2,2,2,2,2,2,2,2,2,2,2,2,2,2,2,2,2,2,2,2,2,2,2,2,2,2,2,2,2,2,2,2,2,2,2,2,2,2,2,2,2,2,2,2,2,2,2,2,2,2,2,2,2,2,2,2,2,2,2,2,2,2,2,2,2,2,2,2,2,2,2,2,2,2
1.0
  10.2207249574250518    0.0000000000000001   -0.0000000000000000
   0.3829459988701251   10.2590639705048421    0.0000000000000000
  -0.1280137135724383   -0.1035873887918901   10.4716825404230445
O Zr
64 32
direct
   0.1234318686906361    0.1466627190892839    0.1358509244152974 O
   0.1680811954935318    0.3547588269370965    0.3198467847808429 O
   0.1266145471179615    0.1064324237638409    0.3801688418678105 O
   0.1664299612090017    0.3983424623578845    0.0778465795112872 O
   0.4272394847932240    0.4162403751474256    0.1951201645306424 O
   0.4424500382978005    0.3300616335919228    0.4426296701134284 O
   0.3737597415475501    0.1037859834326258    0.3751234627135007 O
   0.3725558760234732    0.1470653947067025    0.1400924891808967 O
   0.1259298539680591    0.1387449470012306    0.6264153457936090 O
   0.1976330574803307    0.3343895851455195    0.8202122504425172 O
   0.1224520782784061    0.1142328180445417    0.8812661668052425 O
   0.1923695325315517    0.4019457676284782    0.5711926342028280 O
   0.4443494638932932    0.4125669515524292    0.6860557228189014 O
   0.4190174746426938    0.3406679644133023    0.9448640752434689 O
   0.3744957372492567    0.0918075754931104    0.8760787709698254 O
   0.3843229658414529    0.1446147714594345    0.6190626690195775 O
   0.1220877285850483    0.6539475402667666    0.1257222949910792 O
   0.1734897358558043    0.8487326764403920    0.3160085473872964 O
   0.1225361780953795    0.6118210216782712    0.3732478957905937 O
   0.1784077067319615    0.9244821966052585    0.0566395131164890 O
   0.4206319279914039    0.8940658153797957    0.1773065393104432 O
   0.4349202786713964    0.8417207618841702    0.4354265842378941 O
   0.3690809598088454    0.6089422303759661    0.3669811732131397 O
   0.3806015099149960    0.6409053533269565    0.1068539592449100 O
   0.1221703313620742    0.6383730064028641    0.6173404801134124 O
   0.1755884315982713    0.8298294142202780    0.8132969850378924 O
   0.1220909705192299    0.5877184080807635    0.8694219759198503 O
   0.1796077529347746    0.9102161099229709    0.5730928173418020 O
   0.4258082265920839    0.9070153482897746    0.6852822053188499 O
   0.4434498598318989    0.8399297750403453    0.9366460435214605 O
   0.3748458938176625    0.6123909628816421    0.8608081910527284 O
   0.3757964464027978    0.6360691858045218    0.6119400592563344 O
   0.6136557413395901    0.1449417455330535    0.1313111246346521 O
   0.6926404037797953    0.3365862077109010    0.2937005677098908 O
   0.6161928792163457    0.1031273262946671    0.3769583181845131 O
   0.6816935730503290    0.4043540612999090    0.0666950512970559 O
   0.9284728738616471    0.4240674645390786    0.1833981079913844 O
   0.9302163371967703    0.3378414649069977    0.4317909572932234 O
   0.8731506928544966    0.1124912795653128    0.3736711054880700 O
   0.8649714471417026    0.1416012047895625    0.1274653130141660 O
   0.6244525652187928    0.1437119461994992    0.6317561196362184 O
   0.6784779420968615    0.3407910588032140    0.8218937279063373 O
   0.6254170546481714    0.1106451571787254    0.8809546768906650 O
   0.6838148287094489    0.4107475503172029    0.5619009563922753 O
   0.9458644208789238    0.4076294898657384    0.6746375819672813 O
   0.9192060248565582    0.3598979882342805    0.9278902419732313 O
   0.8721855151859481    0.1245882039646571    0.8704255604402396 O
   0.8827838674921337    0.1578066120234148    0.6212449919568690 O
   0.6240598727988306    0.6467170809390571    0.1406207912162806 O
   0.6847751376465421    0.8352080585470837    0.3278214946020811 O
   0.6103495774749733    0.6145826517449811    0.3844520648577034 O
   0.6798334000338582    0.9070371421714263    0.0746453342509772 O
   0.9219026033631988    0.9039624027631438    0.1813445468356686 O
   0.9352147971109120    0.8317217803323833    0.4409510329859043 O
   0.8634007865067209    0.5970361970078703    0.3694683586200178 O
   0.8697884021025066    0.6497819555982268    0.1221340069432941 O
   0.6361791712821401    0.6436944370438873    0.6349174108778323 O
   0.6925169153998374    0.8456676964678709    0.8143498020095149 O
   0.6301339456534170    0.6127227471865969    0.8855039444525972 O
   0.6842424990682580    0.9056606494966574    0.5614332481342095 O
   0.9232674604518223    0.9203991737536105    0.6886016084582994 O
   0.9344899795468763    0.8402152920659975    0.9336599061859090 O
   0.8777117839176718    0.6129974379818565    0.8656367580766822 O
   0.8748518763289005    0.6348326039369738    0.6147112780254270 O
   0.4949967918229868    0.0027697819855195    0.0257860112601438 Zr
   0.2494194166728234    0.0085578377851793    0.2279903978929780 Zr
   0.2499512182962841    0.2322624219526511    0.4789670039498138 Zr
   0.4953667155253261    0.2334065014923450    0.2741088936873023 Zr
   0.5157661444451124    0.0046223453554280    0.5137232187791927 Zr
   0.2515092846670227    0.0067856835429160    0.7366221809459453 Zr
   0.2418566408695103    0.2361354877873307    0.9868195888396872 Zr
   0.4888222156690429    0.2468069562021980    0.7691155967257417 Zr
   0.5036781655619714    0.5121680077049156    0.0222118302003647 Zr
   0.2530169131437344    0.5054868779281835    0.2345695571574085 Zr
   0.2504249965016347    0.7472916260993148    0.4804477645000065 Zr
   0.4980361187418542    0.7400966592846485    0.2716415906058477 Zr
   0.5047153457850458    0.5069626398325293    0.5188623289453251 Zr
   0.2521312020663222    0.4998640667585897    0.7251680625330742 Zr
   0.2419841002095442    0.7404342013422418    0.9774086170192965 Zr
   0.5002329166828330    0.7488904546073114    0.7683335582168022 Zr
   0.9973876720293765    0.0195103917378097    0.0121662331920590 Zr
   0.7518829201916216    0.0119200704673358    0.2344871874907699 Zr
   0.7500554064362006    0.2453636842095469    0.4843125116830666 Zr
   0.0033547451034593    0.2473908973269038    0.2708093728828257 Zr
   0.9948959895689409    0.0099667890505472    0.5113647951538903 Zr
   0.7460948285164019    0.0114572259301148    0.7407103677043524 Zr
   0.7428271058568253    0.2474448912271445    0.9804761772490875 Zr
   0.0039141443783737    0.2442166347728263    0.7633752826293241 Zr
   0.9953445283117568    0.5119238443846480    0.0112243785892359 Zr
   0.7529572608571148    0.5081825474058896    0.2296283235686074 Zr
   0.7458524480468129    0.7355539480595551    0.4869388734347559 Zr
   0.9945169367438018    0.7326181010982085    0.2636990712371657 Zr
   0.0063299236800607    0.5094023292441161    0.5132914880823779 Zr
   0.7656848240586478    0.5070895980005006    0.7347541882499778 Zr
   0.7485525341749248    0.7452613949024683    0.9876527533446577 Zr
   0.0004772403731074    0.7346175919056295    0.7573897530682391 Zr
