0,0,0,0,0,0,0,0,0,0,0,0,0,0,0,0,0,0,0,0,0,0,0,0,0,0,0,0,0,0,0,0,0,0,0,0,0,0,0,0,0,0,0,0,0,0,0,0,0,0,0,0,0,0,0,0,0,0,0,0,0,0,0,0,0,0,0,0,0,0,0,0,0,0,0,0,0,0,0,0,0,0,0,0,0,0,0,0,0,0,0,0,0,0,0,0
1.0
  10.6410847291619302   -0.0000000000000000    0.0000000000000000
  -0.0134666953575707   10.3197031703062105   -0.0000000000000000
  -2.2664064744964034    0.4469662045582046   10.2061375053602958
O Zr
64 32
direct
   0.0268104997719083    0.1274009367444687    0.1971582407784702 O
   0.4883912879723790    0.3876090975798132    0.0370957079013639 O
   0.4778878083448403    0.3425350328455518    0.2973317426407604 O
   0.0222832671533238    0.1150049023280491    0.4511820114986234 O
   0.2303134431049069    0.3697735495737618    0.2543574304026934 O
   0.2627969118813592    0.1142887758876106    0.0158410165466698 O
   0.2785931911342222    0.1156162762327022    0.2610959780230717 O
   0.2230512270053313    0.3668671427984668    0.5056538288054170 O
   0.0279500428666207    0.1947815782481541    0.6923592441203884 O
   0.4953047831315305    0.3949636780255668    0.5453827097838518 O
   0.4702756627044977    0.3350680814922556    0.7812668548422141 O
   0.0328371669385144    0.0704743128162462    0.9092103954631577 O
   0.1993754699375944    0.4061969592685666    0.7429616905727074 O
   0.2652880880425066    0.1197959024917188    0.5091932679596540 O
   0.2818870629992877    0.1364782202922185    0.7753933143898623 O
   0.2421544682522198    0.3791450925177336    0.0095336962733352 O
   0.0356281046612968    0.6522959055571668    0.1759480760333541 O
   0.4604987052200100    0.9130602071404609    0.0830850664175982 O
   0.4497752466302966    0.8327311996573183    0.3273432371203449 O
   0.0222296559040349    0.6016909068288703    0.4420668212465677 O
   0.2145427791305540    0.8765187127614499    0.2611640441548121 O
   0.3064362252351853    0.6121604468352128    0.0073643244724584 O
   0.2628058820073251    0.6230289987812382    0.2438260863419703 O
   0.2062402372413195    0.8684270553670568    0.4904845337593050 O
   0.9992195367710527    0.6210034656172766    0.6680870485351443 O
   0.4592770001923377    0.9284159768859169    0.5998129311196155 O
   0.4749512621158259    0.8460766729814997    0.8330878742359099 O
   0.0571296954056187    0.5991854165881748    0.9308166673249844 O
   0.2289545221943773    0.8916345039770380    0.7497947744953346 O
   0.2732824448298581    0.6327300360794149    0.5114451226782417 O
   0.2854263218016432    0.6477067921029981    0.7530269706599144 O
   0.2184283360679903    0.8638941273693398    0.9889139518156725 O
   0.5626988853811912    0.1697895273148369    0.1775863901449578 O
   0.9847761432823403    0.3999156161769830    0.0791300456784792 O
   0.9518786916063633    0.3379202074122101    0.2977250136600752 O
   0.5224728961059517    0.0887003020986599    0.4154898306213151 O
   0.7034948618983489    0.3478517002908994    0.2307460435706586 O
   0.7627436308216079    0.1305035164481685    0.9903698108703048 O
   0.7790433727629622    0.1229480015831699    0.2676719231996629 O
   0.7298526075458379    0.3682593992534204    0.4758181718450760 O
   0.5619276289830261    0.1743872114366977    0.6677278105865987 O
   0.9537253715542365    0.4234535114265140    0.5941369715345546 O
   0.9850675930070441    0.3523798668139539    0.8536230497898277 O
   0.5275087927160054    0.1043010975580584    0.9072884724350094 O
   0.7370684220228848    0.4068530910687696    0.7314471689685963 O
   0.7711849782239043    0.1233755823968389    0.5102974519660013 O
   0.7940946277564884    0.1375143181139552    0.7681140191264993 O
   0.7431018034267394    0.3727342372035095    0.9866356269265765 O
   0.5282421168860336    0.6683782769961376    0.1832169722990605 O
   0.9531186115746560    0.9257362165091593    0.0919330025494181 O
   0.9570937729522967    0.8270659919518735    0.3137602612269482 O
   0.5529836015058595    0.5934164086397650    0.4193951252618259 O
   0.7159310294648662    0.8828314816099676    0.2508888934775925 O
   0.8153715250108732    0.6483610193206467    0.9827029167628226 O
   0.7836570532474364    0.6370610773716193    0.2529327683312326 O
   0.7256372867107894    0.8740465528726848    0.4822343506654777 O
   0.5435932261691514    0.6793192034268747    0.6698255711339903 O
   0.9524297478998859    0.9175798030053377    0.5511229540505228 O
   0.9690254811040572    0.8236424885652429    0.8315034458180577 O
   0.5456938034650921    0.5793519519943772    0.9126912221109803 O
   0.7351524364557273    0.8878738878671799    0.7435222908484724 O
   0.7823800090313497    0.6349384100352974    0.5125086560760916 O
   0.7703398333085617    0.6237451252267756    0.7494043395636175 O
   0.7171620635473233    0.8646540594166923    0.9893299115455675 O
   0.1093910044551126    0.0131728938316962    0.0907355112072153 Zr
   0.3808380156224423    0.2220553299189163    0.1770371342293819 Zr
   0.3573287372590624    0.4792780434233411    0.4137919586309662 Zr
   0.1084615466215983    0.2402022786492030    0.3631857307187187 Zr
   0.1111203993406638    0.0315875043459005    0.6221130994330901 Zr
   0.3871333334062968    0.2502356671821396    0.6212244581919510 Zr
   0.3492184664410836    0.4902018285336603    0.8804685235213056 Zr
   0.1543348971466252    0.2489538770347526    0.8637337073079930 Zr
   0.1512746583276071    0.5155014710036787    0.0980700156718755 Zr
   0.3500874137087615    0.7660124037308562    0.1636347226678917 Zr
   0.3373917035955677    0.9649679465199130    0.4040764628571809 Zr
   0.1312116062599173    0.7154235940358660    0.3472308390063077 Zr
   0.1380875740105668    0.5298478072092113    0.6002780497208010 Zr
   0.3665342817477192    0.7891969972339311    0.6502140152545133 Zr
   0.3603277012871710    0.9856994260479249    0.8924907050601646 Zr
   0.1540118672267105    0.7357560616254173    0.8644276037694391 Zr
   0.6331361166123006    0.0204875445260478    0.0857927751845520 Zr
   0.8655897366219131    0.2657247583472720    0.1323885840838768 Zr
   0.8500116061496230    0.4825577501557147    0.3917281310682147 Zr
   0.6371446476279291    0.2213306328096276    0.3654801267806669 Zr
   0.6599883118368571    0.0189803459651265    0.6113813384174782 Zr
   0.8653118108139489    0.2955887545823166    0.6640494030714851 Zr
   0.8745600087852401    0.5066413108987863    0.8856169705290402 Zr
   0.6474197419193577    0.2457246419851040    0.8652330530587202 Zr
   0.6257761548071917    0.4963650869369191    0.1043198106081576 Zr
   0.8613671784892013    0.7688845278539990    0.1375710641623806 Zr
   0.8595916152194725    0.9790619243406038    0.3868699105049548 Zr
   0.6451600580512936    0.7399928256340278    0.3415255731729386 Zr
   0.6442046745553823    0.5240692763017055    0.5953120577700380 Zr
   0.8634272399059904    0.7638944978748097    0.6415336919830044 Zr
   0.8670770614440474    0.9599398247014586    0.8822193358330753 Zr
   0.6362090221652411    0.7124133870133049    0.8664279919171860 Zr
