1,1,1,1,1,1,1,1,1,1,1,1,1,1,1,1,1,1,1,1,1,1,1,1,1,1,1,1,1,1,1,1,1,1,1,1,1,1,1,1,1,1,1,1,1,1,1,1,1,1,1,1,1,1,1,1,1,1,1,1,1,1,1,1,1,1,1,1,1,1,1,1,1,1,1,1,1,1,1,1,1,1,1,1,1,1,1,1,1,1,1,1,1,1,1,1
1.0
   9.8864461504489807   -0.0000000000000000   -0.0000000000000000
  -0.1859377081326648    9.9778510904791560    0.0000000000000000
  -0.1972209586613783    0.1802054385053285   11.0408739879779443
O Zr
64 32
direct
   0.1079908960294516    0.1018603041216059    0.1617061698325731 O
   0.3553924109793508    0.1397979652182356    0.1170272699613191 O
   0.3837352196173326    0.3960933679526564    0.1401052962187915 O
   0.1272650103129080    0.3641810285075330    0.1022629351652243 O
   0.1436012153049348    0.3441352542887934    0.3287559538359303 O
   0.3873974655149621    0.3544613969950681    0.4076147089080417 O
   0.3894072581596884    0.0935992933764026    0.3473798112609762 O
   0.1453830833630975    0.1126710763041445    0.4123291064327918 O
   0.1759790617449905    0.1677457689549405    0.6731785572947386 O
   0.4233438769825490    0.1263166122426012    0.6045510479213826 O
   0.3827675059003668    0.3688196801531600    0.6502841105439435 O
   0.1563138056874609    0.3920786115750070    0.5814692365106653 O
   0.1135209645941825    0.3932703867417039    0.8534981117763686 O
   0.3617221471677766    0.3791120204788448    0.8940209229403370 O
   0.3826284332754737    0.1249954222707695    0.8818412740967377 O
   0.1093690671453535    0.1231237364684570    0.9039872085187989 O
   0.1492635960314221    0.6272002065478953    0.1412048807094052 O
   0.3863003369949088    0.6523453104957997    0.0828837521464726 O
   0.3574553216469674    0.8819638788020082    0.1477020813185335 O
   0.1078325077567874    0.8610286192206886    0.0960336281669840 O
   0.0669038193526850    0.8761151021246810    0.3473675095446313 O
   0.3583496359161644    0.8658295222711619    0.4019890378363828 O
   0.4117680121787637    0.5949160409736032    0.3175320539857069 O
   0.1297924621827665    0.6246215682187420    0.4186909881168399 O
   0.1193127601227872    0.6089826579293197    0.6646969946664570 O
   0.3720280084407107    0.6222959648031584    0.5656227288890308 O
   0.3768694743374780    0.8863630164752367    0.6586048045306725 O
   0.1107539987471101    0.8716193862293750    0.6023244366470606 O
   0.1513158830843901    0.8730197703421230    0.8601268461573327 O
   0.4047564338018143    0.8673206898992274    0.9221540097356593 O
   0.3377437080522223    0.6429666000738015    0.8228980570281780 O
   0.0954811198927870    0.6526360109237028    0.9075887735437507 O
   0.6361906725347907    0.1311493860982792    0.1540563927142067 O
   0.8794972712012005    0.1354152458372855    0.0690080746623518 O
   0.8797889374100784    0.3798807830721764    0.1616049172142372 O
   0.6376238932456876    0.3775020616473704    0.0761388138308023 O
   0.6398944470714849    0.3779308689173739    0.3248742881048780 O
   0.9138974654487295    0.3741923262365086    0.3867718104970487 O
   0.8781519366689178    0.1123185658234806    0.3529827714675106 O
   0.6217502978928854    0.1406642718057655    0.3935566820825381 O
   0.6533178531111004    0.1546227211572154    0.6481691610276801 O
   0.9183516527113817    0.1502767014961204    0.5773368049613442 O
   0.8768027390058860    0.3715480147180142    0.6389097512009474 O
   0.6315790627930025    0.4062756091123316    0.5836220374688034 O
   0.6345227667719806    0.3481171740796667    0.8415361087461911 O
   0.8841310939360914    0.3576108125690129    0.9060226699890114 O
   0.8649641814701675    0.1226929976295072    0.8164330301491715 O
   0.6279979426011013    0.0874329675349595    0.9082066983934889 O
   0.6183826155486287    0.6267250417299411    0.1384398326223387 O
   0.8654721828739080    0.6160009967800708    0.0915782291511486 O
   0.8582181931730620    0.8637067331104513    0.1576276765856588 O
   0.6201123313731043    0.8640534489059362    0.1058506844179675 O
   0.5809556600506824    0.9042946935710461    0.3413831960227178 O
   0.8307513489451076    0.8765632250384533    0.4186531366749653 O
   0.9033733374022445    0.6251276380581009    0.3483402916913794 O
   0.6515485402276684    0.6228126582529028    0.4017023131347471 O
   0.6192711351253588    0.6251884823358480    0.6510941314725166 O
   0.8646396786689524    0.6292186912266735    0.6072394468318602 O
   0.8541976421052474    0.8872206310142674    0.6482988022319506 O
   0.6069023631821873    0.8856531665905308    0.6057074095748080 O
   0.6551238657239650    0.8398461194187097    0.8364602299107817 O
   0.8983474071247793    0.8719004288340987    0.9101144112451103 O
   0.8459566230529486    0.6377185398961558    0.8511087392838717 O
   0.5868874939972092    0.5921017517984700    0.8863247778079385 O
   0.0086389937462372    0.9977688843452195    0.0059143519680691 Zr
   0.0059433895442610    0.2585843402476972    0.2393375917864229 Zr
   0.2442482700728333    0.9872998058856804    0.2717620862050540 Zr
   0.2560742724494149    0.2535960754626653    0.9949376078253584 Zr
   0.9791582623886328    0.9921770057165589    0.4907894750361519 Zr
   0.9962801307328190    0.2506282269263482    0.7482171552446942 Zr
   0.2538819469793249    0.0036562146098320    0.7693070343388261 Zr
   0.2623943508150403    0.2402422057293438    0.5072009154798431 Zr
   0.0115452253835197    0.4991075547592475    0.9918905664646263 Zr
   0.9997970268527031    0.7428313713065076    0.2231456897237184 Zr
   0.2462455075461172    0.4855537681213041    0.2496152054992103 Zr
   0.2523898135606210    0.7576831691370617    0.9965368313940022 Zr
   0.0024206315572660    0.5067063286842873    0.4948774311390062 Zr
   0.9988695858242577    0.7547375335953154    0.7528899161743251 Zr
   0.2471002247441836    0.4839389803723769    0.7384287714611570 Zr
   0.2456216122825282    0.7481663518789763    0.5194061140489720 Zr
   0.4892420901395932    0.0155861641180681    0.0316705572566760 Zr
   0.4894111020117323    0.2598301992114138    0.2591991914694532 Zr
   0.7368976058003436    0.9911725922838579    0.2472835564623649 Zr
   0.7441177931214695    0.2369392307966997    0.9978710948423524 Zr
   0.4976270107274355    0.0020859305324941    0.4782540226117604 Zr
   0.5099378357410156    0.2371217636211198    0.7528492258720456 Zr
   0.7468654433238725    0.9988119290641636    0.7609806626312873 Zr
   0.7647604207046990    0.2610625372361590    0.4991972273482495 Zr
   0.4934828395440146    0.4853615774805363    0.0063151893116362 Zr
   0.4858782709207400    0.7372732950545072    0.2331167067301504 Zr
   0.7726894921219244    0.5221675350572830    0.2423997737148475 Zr
   0.7572176621516076    0.7571278444102900    0.9902629543191053 Zr
   0.5115758022620167    0.5179895614933048    0.4925183398090661 Zr
   0.4937049694375715    0.7485236912674237    0.7679216714303594 Zr
   0.7403860109098024    0.4950000832947128    0.7450414189725315 Zr
   0.7344889451274295    0.7735133042929995    0.5260140301323764 Zr
