2,2,2,2,2,2,2,2,2,2,2,2,2,2,2,2,2,2,2,2,2,2,2,2,2,2,2,2,2,2,2,2,2,2,2,2,2,2,2,2,2,2,2,2,2,2,2,2,2,2,2,2,2,2,2,2,2,2,2,2,2,2,2,2,2,2,2,2,2,2,2,2,2,2,2,2,2,2,2,2,2,2,2,2,2,2,2,2,2,2,2,2,2,2,2,2
1.0
  10.6730337210705244    0.0000000000000000    0.0000000000000000
   0.1483224451652919    9.9319229322107887    0.0000000000000000
  -0.1940931841422061    0.2339414003821244   10.7537758706955735
O Zr
64 32
direct
   0.1274223365501772    0.1539894145887992    0.1318741842076603 O
   0.1817924940095734    0.3437790193975300    0.3110643849864458 O
   0.1180915899628289    0.1052353790190609    0.3749347139814627 O
   0.1652787434049019    0.4157073596991578    0.0648856550843167 O
   0.4260133980001978    0.4003255738027176    0.1807220630007695 O
   0.4330576266200025    0.3344654449206526    0.4434274813737181 O
   0.3685108205164136    0.1001966315068162    0.3614916759882737 O
   0.3719373711121009    0.1488805899703225    0.1115743710606451 O
   0.1113200068719879    0.1456884450763087    0.6298493778689749 O
   0.1793682617923927    0.3471555132841084    0.8144982322877309 O
   0.1226209924582122    0.1082239709574962    0.8877605588112836 O
   0.1877567743206416    0.4092600169518112    0.5706536913999369 O
   0.4531425919708908    0.4174068740950377    0.6962036742835462 O
   0.4306028992440318    0.3438440258949865    0.9352568252242605 O
   0.3811918030067144    0.0975237627412446    0.8636460475346758 O
   0.3534686449454119    0.1399044960068055    0.6140467132195201 O
   0.1262410293902283    0.6441932118070647    0.1276636838546274 O
   0.1745181613931744    0.8388942364132186    0.3284701910075726 O
   0.1268647006623294    0.6099898596500354    0.3890459648318288 O
   0.1698678699642725    0.9150184127766392    0.0690244934081919 O
   0.4157127041752774    0.8999228642269933    0.1812516976210632 O
   0.4268868136605743    0.8440050164525130    0.4336244949745621 O
   0.3811521875242499    0.6109837985604228    0.3565351311577971 O
   0.3726277451795011    0.6365151654092480    0.1160183662558796 O
   0.1328968522600744    0.6350957094607508    0.6510603903768304 O
   0.1709815376962334    0.8467291151681414    0.8150212227487211 O
   0.1334378995793067    0.6084796032393746    0.8984718970691219 O
   0.1711486325717334    0.9113455928903240    0.5644271624760392 O
   0.4016354822204114    0.8967702054206845    0.6758915219822103 O
   0.4355323306089253    0.8344189426193869    0.9355406258573308 O
   0.3765395834092679    0.6153858056873446    0.8748196296275884 O
   0.3700097546661698    0.6341274481599174    0.6150993383008040 O
   0.6255600078613173    0.1443846964208819    0.1367804232379691 O
   0.6750596719487897    0.3429469581028383    0.3166730068533342 O
   0.6206414196881423    0.0933348487177025    0.3685211993490865 O
   0.6846254825499419    0.4025829183343756    0.0722569731174563 O
   0.9174275802957564    0.4007026181720449    0.1728117135920740 O
   0.9381115434955795    0.3428067766327362    0.4271578270491591 O
   0.8750095660772129    0.1034932866584552    0.3632618705719152 O
   0.8725535653856120    0.1349428422968003    0.1174430644162486 O
   0.6094911212963522    0.1357017476283202    0.6416854778333464 O
   0.6882619293394150    0.3415245490606694    0.8153524816891002 O
   0.6264936835707836    0.1060752235961294    0.8837398916502892 O
   0.6772324003844982    0.4050582626606801    0.5661394579266239 O
   0.9315691241435784    0.3962618912096038    0.6840363153880947 O
   0.9174298549771643    0.3330045427304952    0.9387763327307482 O
   0.8779682482764913    0.0992878696499440    0.8573758569699140 O
   0.8665039952931417    0.1486574145946131    0.6048882105238870 O
   0.6283177770026390    0.6408205557212354    0.1267211620165426 O
   0.6821371570343403    0.8298560723576943    0.3190762951504641 O
   0.6218707730161135    0.6073781996083171    0.3807996106706216 O
   0.6606693169021294    0.8897131249532324    0.0778647407355570 O
   0.9272147202574474    0.9174642284760255    0.1891183853888945 O
   0.9192668338824310    0.8458507496752768    0.4293817229799986 O
   0.8734564793326641    0.6128670362710017    0.3631318348322072 O
   0.8760981665532176    0.6526766740495404    0.1147170596759151 O
   0.6172885467213401    0.6445158593759104    0.6235032540311172 O
   0.6608299320691258    0.8502044184892719    0.8301556745502978 O
   0.6327036819601799    0.6085911404514115    0.8818073896854091 O
   0.6582273809651543    0.8977690926702162    0.5831257325799550 O
   0.9253815920159784    0.8972972760130762    0.6735774552860824 O
   0.9267694774126102    0.8417732482815690    0.9349379054475013 O
   0.8758545464227516    0.6038228383143270    0.8629626480117207 O
   0.8824540003155174    0.6391385625602329    0.6125109626330675 O
   0.5009827819509818    0.0056959533611338    0.0191413592653467 Zr
   0.2544820555639953    0.0095068396748645    0.2355449417262368 Zr
   0.2350965337104180    0.2417593372760571    0.4809252331911843 Zr
   0.5002048649087603    0.2381715558644256    0.2722254616145954 Zr
   0.4859446438245253    0.0096078771150814    0.5238560111663941 Zr
   0.2383157947032811    0.0159507141618271    0.7365100082737454 Zr
   0.2446488714862080    0.2503038823561783    0.9809003196118975 Zr
   0.5053017678956684    0.2392729620445267    0.7782657187422540 Zr
   0.5118203363402660    0.5098841341766648    0.0131270638515613 Zr
   0.2564352901989220    0.5041366541269665    0.2288476264607902 Zr
   0.2503806800830435    0.7459906971717167    0.4893291489121984 Zr
   0.5027865790284676    0.7363021335978825    0.2595056881094821 Zr
   0.5078057197937393    0.5118679389292582    0.5175298198064472 Zr
   0.2593566055872789    0.5110220101586946    0.7471140907719445 Zr
   0.2535026309679986    0.7481640114449202    0.9883797476534639 Zr
   0.4945053643714446    0.7447154029281416    0.7673759372824118 Zr
   0.9942388887943463    0.0149399624486704    0.0218479061052630 Zr
   0.7479192314212525    0.0103884510062940    0.2295651959538487 Zr
   0.7560159451243528    0.2451112681160967    0.4716851022274383 Zr
   0.0044178569367332    0.2394793637355820    0.2590301559465015 Zr
   0.9895285603093621    0.0052458422923438    0.5099004235379631 Zr
   0.7539752384175418    0.9968413247513382    0.7357212513290229 Zr
   0.7472350946705125    0.2353287754745122    0.9796189455191427 Zr
   0.9980938905673054    0.2327141989547813    0.7682140508537165 Zr
   0.9914969579315720    0.5150738976733613    0.0196142337664656 Zr
   0.7513794021299446    0.5132774699181041    0.2319295684501444 Zr
   0.7496543330773751    0.7431155029005118    0.4774123698440002 Zr
   0.0142611500825885    0.7512673693771569    0.2647811527167178 Zr
   0.0075069866053363    0.5061609749976044    0.5136913925232003 Zr
   0.7508779883998126    0.5110526126668938    0.7252149329290010 Zr
   0.7554721710155806    0.7404405609740177    0.9814888025295344 Zr
   0.0113716133371083    0.7340555574735694    0.7727140468348370 Zr
