1,1,1,1,1,1,1,1,1,1,1,1,1,1,1,1,1,1,1,1,1,1,1,1,1,1,1,1,1,1,1,1,1,1,1,1,1,1,1,1,1,1,1,1,1,1,1,1,1,1,1,1,1,1,1,1,1,1,1,1,1,1,1,1,1,1,1,1,1,1,1,1,1,1,1,1,1,1,1,1,1,1,1,1,1,1,1,1,1,1,1,1,1,1,1,1
1.0
  10.1727459961144220    0.0000000000000000    0.0000000000000000
  -0.2899544005596487   10.6282278988984213    0.0000000000000000
  -0.2807277570422823    0.0547042909755845   10.3585995061278648
O Zr
64 32
direct
   0.1389317273368570    0.1286136012302083    0.1513476800384610 O
   0.3735663824135159    0.1262234333039603    0.0945419028721653 O
   0.3701169465902940    0.3756235819227884    0.1513047528165197 O
   0.1227360274059250    0.3709805225397631    0.0888999310336531 O
   0.1212454583308889    0.3813278564017623    0.3380934755541238 O
   0.3798489704233693    0.3580229890049183    0.3917629902284889 O
   0.3690060783254897    0.1119973096346407    0.3442597317996919 O
   0.1132035898981768    0.1332605549812552    0.4019176619133796 O
   0.1042679641748383    0.1222258652934132    0.6390065897599627 O
   0.3902196704937363    0.1337892153423399    0.5893369377770251 O
   0.3780069347050991    0.3795111340667369    0.6486480427132232 O
   0.1353294376006847    0.3740765445228657    0.5873260361404016 O
   0.1042105222575843    0.4070783864518750    0.8396760666202587 O
   0.3637934677185487    0.3705706403788583    0.8883145114604082 O
   0.3693351523623247    0.1222453371344682    0.8467533338084179 O
   0.0956137064841315    0.1488195258603867    0.9050513564265099 O
   0.1233240768641549    0.6224222931985202    0.1444497532137266 O
   0.3752993758525564    0.6270332240658478    0.1092398958209160 O
   0.3713417250991685    0.8798584687041949    0.1542047248139147 O
   0.1247357850072983    0.8709160278383866    0.1072948159200973 O
   0.1271610022293112    0.8739234529690352    0.3675138822625515 O
   0.3762126049732547    0.8687050008076320    0.4116373378059015 O
   0.3544090161635376    0.5987727742981740    0.3520095253941359 O
   0.1083531554443667    0.6421998374323146    0.3899447841004444 O
   0.1535394990037802    0.6348131962953563    0.6541923312887227 O
   0.3949153038430832    0.6350585414369043    0.5859657203282433 O
   0.3809004495923370    0.8875625007760094    0.6665162583431938 O
   0.1321117166411881    0.8819146946256569    0.6154738893542954 O
   0.1359914800415132    0.8956783621893420    0.8672133994161888 O
   0.3928279229848433    0.8690058406794401    0.9008120552570784 O
   0.3898789133558215    0.6314766971267937    0.8517519697600606 O
   0.1159588547522933    0.6559888183842121    0.8996358495071803 O
   0.6190312728925835    0.1377585491982597    0.1618190591892654 O
   0.8803111888955963    0.0980522619114651    0.0993580504479536 O
   0.8694176700222058    0.3573366067710919    0.1584984004573922 O
   0.6190595070535071    0.3708821897575267    0.1091187456790211 O
   0.6212802699930046    0.3807349389861290    0.3515735756600692 O
   0.8666809034205117    0.3756596048237273    0.4143951730116260 O
   0.8633921102479537    0.1204714528339830    0.3595990573722274 O
   0.5950049739525840    0.1433216528529075    0.4094862072610032 O
   0.6445578768209937    0.1457994440413054    0.6614193667635196 O
   0.8856912572973861    0.1542365907542141    0.6031575937947916 O
   0.9061172136897652    0.4037087851645798    0.6578974270864023 O
   0.6322341515692265    0.3783165369016953    0.6141956122192282 O
   0.6314922745938989    0.3694821647219972    0.8652416092443691 O
   0.8621059954579514    0.3719726125989063    0.9112099811771107 O
   0.8482722292778815    0.1335380286520174    0.8517443382554395 O
   0.6206221219264547    0.0830516459417067    0.9046755047973688 O
   0.6187129083685565    0.6261988558757178    0.1499806866537256 O
   0.8700096138493646    0.6278909584562010    0.0988181214549762 O
   0.8905932921121571    0.8806928368882337    0.1510214331845305 O
   0.6323217748319999    0.8763934554150300    0.0961652194402064 O
   0.5927793430556310    0.8957338569228055    0.3182010031520291 O
   0.8705996104892284    0.8706375805713016    0.4039304714237449 O
   0.8627933512766445    0.6216093440338230    0.3418157422444414 O
   0.6057962656828646    0.6320063310828571    0.3900697499994769 O
   0.6481494570540600    0.6307396881213143    0.6559523471855836 O
   0.9161822059219447    0.6617466404125780    0.5831821287835618 O
   0.9054464089170629    0.8940991962543392    0.6515661395353002 O
   0.6367642743024341    0.8838102779036239    0.5912076104957200 O
   0.6440243485038751    0.8490462347741288    0.8450744026566042 O
   0.8923749651458197    0.8788478803975489    0.8858905545939277 O
   0.8805409565688425    0.6314017305588384    0.8414627927881208 O
   0.6511812219772740    0.5926479081584083    0.9147242893496069 O
   0.0076616704382860    0.9825655905852403    0.9965073154622436 Zr
   0.9952612279276378    0.2382439345428234    0.2482954610397360 Zr
   0.2455390580578480    0.0067417264566298    0.2541068522962846 Zr
   0.2617308636208076    0.2406156042206524    0.0042254420565354 Zr
   0.9956409287349778    0.0059928207358874    0.5040500968022993 Zr
   0.9918244487993062    0.2557773496341083    0.7591188510423849 Zr
   0.2450912058169677    0.9973252425802687    0.7301658740185526 Zr
   0.2529042801715015    0.2434672546648179    0.4980059446403239 Zr
   0.9985811760332430    0.5044492515744190    0.9936931978990772 Zr
   0.9971402601336535    0.7450656547908594    0.2543129029307104 Zr
   0.2442675471430107    0.5006814512245246    0.2382762485739386 Zr
   0.2549244832039168    0.7700363377908881    0.9947902267776702 Zr
   0.9983377780744227    0.5032312882070538    0.4887079094239780 Zr
   0.0170014244002268    0.7581059436274407    0.7507365964481576 Zr
   0.2644053203506904    0.4960792826974412    0.7509674494798426 Zr
   0.2364165027035285    0.7544919707919274    0.5100379666164868 Zr
   0.4982474716799497    0.0031094569048288    0.0034248112960650 Zr
   0.4995511111303655    0.2498598585555561    0.2485949976226655 Zr
   0.7505508711075644    0.9994574086710309    0.2478118143945466 Zr
   0.7344447416271400    0.2368322264052079    0.0011589029089211 Zr
   0.5052719366614946    0.9952417560922450    0.4936426315039041 Zr
   0.4970226931651217    0.2609500429769056    0.7538531124096931 Zr
   0.7484031275459178    0.9912013500321534    0.7562827928973991 Zr
   0.7445798324673486    0.2421373282392974    0.5044393035765949 Zr
   0.5041367286006712    0.5147371963327643    0.0107384452825110 Zr
   0.4898599781527204    0.7447210032829302    0.2596110754652826 Zr
   0.7340075989003497    0.4832492896854930    0.2361079471364022 Zr
   0.7541249266725862    0.7546847419721446    0.9982530222915599 Zr
   0.5064723753773596    0.5020649252083629    0.4886239628634912 Zr
   0.5075627982098532    0.7537793015840529    0.7382361908360477 Zr
   0.7443247514141047    0.4923338749601139    0.7665853249951857 Zr
   0.7624403744139450    0.7381297866627434    0.5102258924358842 Zr
