1,1,1,1,1,1,1,1,1,1,1,1,1,1,1,1,1,1,1,1,1,1,1,1,1,1,1,1,1,1,1,1,1,1,1,1,1,1,1,1,1,1,1,1,1,1,1,1,1,1,1,1,1,1,1,1,1,1,1,1,1,1,1,1,1,1,1,1,1,1,1,1,1,1,1,1,1,1,1,1,1,1,1,1,1,1,1,1,1,1,1,1,1,1,1,1
1.0
  10.3258074478630100   -0.0000000000000000   -0.0000000000000001
   0.1655524200484298   10.0385208681123252    0.0000000000000000
   0.4198049877390261    0.5085232249162871   10.8423080462609605
O Zr
64 32
direct
   0.1157841764409599    0.1067901422573100    0.1485241376217251 O
   0.3576938949651171    0.1148383616581370    0.1031817819994333 O
   0.3374302040464392    0.3492646138285935    0.1642391574194479 O
   0.0963747477826643    0.3562272958021667    0.0923723566538385 O
   0.1096666698718987    0.3969315293725300    0.3177935214438261 O
   0.3551290563190706    0.3906567126865843    0.4176305683236456 O
   0.3701331181187622    0.1224429861091478    0.3553449035077590 O
   0.1183499921745233    0.1278872835999517    0.3974552209468076 O
   0.1415459043386078    0.1260835913582768    0.6342422271401389 O
   0.3847854306228561    0.1129535716597830    0.5930184225412521 O
   0.3716524796859668    0.3489294749128271    0.6554706675255211 O
   0.1235500193182807    0.3715020091472263    0.5973092978790031 O
   0.1555494347932380    0.3530967270324918    0.8300036016873195 O
   0.3863790503679700    0.3730457977416104    0.9175223324087949 O
   0.3878427182873417    0.1080916146743689    0.8360349525695286 O
   0.1457776438317936    0.1105958742675314    0.8990003410631188 O
   0.1153542606324763    0.6249149068592577    0.1446774760601784 O
   0.3761558478068985    0.6241430125595928    0.0948042356216283 O
   0.3615748622380772    0.8472761580372128    0.1524406862679005 O
   0.0975785120544139    0.8515430724604731    0.0853663203213626 O
   0.1512356204688773    0.8540014092336914    0.3316263768248094 O
   0.3734161115859767    0.8794993251504091    0.3953385039985270 O
   0.3623184211789058    0.6314691688089993    0.3462768153220608 O
   0.1147416306016385    0.6163615363853896    0.3945860211724360 O
   0.1151197611014741    0.6081599152097582    0.6449464389191083 O
   0.3546444239516209    0.6108146453375592    0.5961154733496896 O
   0.3753360765128914    0.8675046740200671    0.6577654529341114 O
   0.1143781563212903    0.8639705706462973    0.5910711578251127 O
   0.1306670801599269    0.8513124812524724    0.8382541067475265 O
   0.3921487159683198    0.8409221977707553    0.9174553173971480 O
   0.4054028250111752    0.5911489282328478    0.8217205464728007 O
   0.1204360609358117    0.5959913435938503    0.9072518034840608 O
   0.6072805419549452    0.1183070005866456    0.1683433480963901 O
   0.8512206355997264    0.1158154430446869    0.0785414159851020 O
   0.8691276062073591    0.3877156977066029    0.1519294574800492 O
   0.5998830587594987    0.3614019188294223    0.1106740600968089 O
   0.6020130961928050    0.3811653440816311    0.3344209027293237 O
   0.8544889728448968    0.3840301467109797    0.3861986140159532 O
   0.8715664013619888    0.1248065459899466    0.3437063110178954 O
   0.6118034517021250    0.1388178930980294    0.4137934803325562 O
   0.6287265013516889    0.1273225305598603    0.6617538033771623 O
   0.8620310640886381    0.1261617578763835    0.5745988684160702 O
   0.8749353779847348    0.3699113206458112    0.6475341756519413 O
   0.6171861930719160    0.3838786990989003    0.6054650245769265 O
   0.6415379925216559    0.3806269722397818    0.8631779462517168 O
   0.8930514440118068    0.3640156115518121    0.9015095745016009 O
   0.9053636465851432    0.1146067933716971    0.8280793135458112 O
   0.6303621355960835    0.1362393753178785    0.9130562606837163 O
   0.5951490994304554    0.6185746257241017    0.1362431584029213 O
   0.8566805664022453    0.6362900883806021    0.1167618950502497 O
   0.8766648120388948    0.8716758344749129    0.1419183723737344 O
   0.6135162753738655    0.8729841464550215    0.1096803232324781 O
   0.6353178924000132    0.8638269396820717    0.3488444475532443 O
   0.8944222892044947    0.8597290603379477    0.3903985404159142 O
   0.8579839929758091    0.6276673451273135    0.3532817985577282 O
   0.6215723114275578    0.6101775882765316    0.4050346185574796 O
   0.6392350116929879    0.6255998409121135    0.6454299043470997 O
   0.8625577109579178    0.6071398422353945    0.6027231533191502 O
   0.8640116080624491    0.8563092754759343    0.6486140746688335 O
   0.6317769494454084    0.8796126665936639    0.6129113495158165 O
   0.6425453634302627    0.9028974931683027    0.8612728052603461 O
   0.9055414754006302    0.8714208162286745    0.8981167002867158 O
   0.8649867352823613    0.6224555930031207    0.8624044015632414 O
   0.6344189775280493    0.6439171857010334    0.8983790161781168 O
   0.0082137395608322    0.0050555447991670    0.0031798111760798 Zr
   0.9884478083066366    0.2569841620737257    0.2352358161581247 Zr
   0.2595607256968875    0.0034138565579885    0.2493558787266104 Zr
   0.2437583884039667    0.2448282925252170    0.0084659647197217 Zr
   0.0013159701946729    0.0137154308279486    0.4970644167925615 Zr
   0.0120780573782411    0.2656743239474949    0.7411589311254833 Zr
   0.2526293103276242    0.9965504265102489    0.7385300280286164 Zr
   0.2654388473362306    0.2398832836163400    0.5129498461923834 Zr
   0.9852918354253823    0.5184208521526256    0.0121610479094874 Zr
   0.9974564987073372    0.7471702614446794    0.2497684997092381 Zr
   0.2446045408823172    0.5188195013565341    0.2411972799649283 Zr
   0.2522902630842981    0.7550826665273641    0.0001450938945184 Zr
   0.9998698897413182    0.4872343683914999    0.4878958060986159 Zr
   0.0005733883449429    0.7359133067688763    0.7444847903287214 Zr
   0.2601821494632191    0.4961023590740756    0.7466091661352126 Zr
   0.2457956030913037    0.7502148470565587    0.4954876493527269 Zr
   0.5041974783701620    0.0093169035383865    0.0065812441590430 Zr
   0.4916898595157591    0.2547144020117232    0.2541359636383164 Zr
   0.7520781412659345    0.9941735052431384    0.2504348203827677 Zr
   0.7573416787065088    0.2707248576422023    0.0002399163618024 Zr
   0.5006936645175629    0.9905876165493822    0.5138736959720854 Zr
   0.5099622585683187    0.2603697490898593    0.7557040603200357 Zr
   0.7628436239984896    0.0072095539377703    0.7601978954049743 Zr
   0.7362464915197423    0.2508353888937253    0.4988690352756848 Zr
   0.5092695078580645    0.4999794180193075    0.0005749914108140 Zr
   0.4982480297955224    0.7461746155062178    0.2542154242934023 Zr
   0.7266925897081563    0.5105856364958227    0.2510101921092840 Zr
   0.7555692530667737    0.7589069630910020    0.0054192192611851 Zr
   0.4858547294700981    0.4945673642047922    0.4939147113373860 Zr
   0.5135579180799293    0.7435413811725861    0.7652259358616186 Zr
   0.7586968905881749    0.4934046373512627    0.7325379287981943 Zr
   0.7484551234704288    0.7476363292651994    0.5120279111249281 Zr
