2,2,2,2,2,2,2,2,2,2,2,2,2,2,2,2,2,2,2,2,2,2,2,2,2,2,2,2,2,2,2,2,2,2,2,2,2,2,2,2,2,2,2,2,2,2,2,2,2,2,2,2,2,2,2,2,2,2,2,2,2,2,2,2,2,2,2,2,2,2,2,2,2,2,2,2,2,2,2,2,2,2,2,2,2,2,2,2,2,2,2,2,2,2,2,2
1.0
  10.5385472130521674    0.0000000000000000    0.0000000000000000
  -0.2977940901805353    9.6506875373279719    0.0000000000000000
  -0.4982923948137660   -0.3420722632065996   10.0465956381970472
O Zr
64 32
direct
   0.1314425811592400    0.1455956476841390    0.1313943254948099 O
   0.1816863447190788    0.3552140213372607    0.3308241847580182 O
   0.1231233783364277    0.1118360369152747    0.3749631822821169 O
   0.1829939204744515    0.4082928191116510    0.0735706091613581 O
   0.4350077629791241    0.4049391059498426    0.1802259574891121 O
   0.4497517121951129    0.3346623030286727    0.4390740624345094 O
   0.3596324842463676    0.1146981040953002    0.3643500404836544 O
   0.3735348680618313    0.1376153666905336    0.1173410553339997 O
   0.1324412078887828    0.1465019413895723    0.6277278214545284 O
   0.1801294866721380    0.3435351147818904    0.8121086587261307 O
   0.1217864432298176    0.1130625225273334    0.8926053884964883 O
   0.1973639004536605    0.4254552491555177    0.5603047163755666 O
   0.4365542086844932    0.4106916945235045    0.6928041355956368 O
   0.4158237917895660    0.3495666086402782    0.9239805718473101 O
   0.3710680466147819    0.0967291497639937    0.8801466476744617 O
   0.3755270248056308    0.1486201645473891    0.6295042578856062 O
   0.1187848742410398    0.6476816246082128    0.1301351873593101 O
   0.1782972862840442    0.8407098762546967    0.3209159329397073 O
   0.1177040781744010    0.6159289045506269    0.3871661162624479 O
   0.1722771208530972    0.9062566356704685    0.0669049459644249 O
   0.4234859361078132    0.9118221189223302    0.1852482985603663 O
   0.4365785900819870    0.8316103563835184    0.4374823753918656 O
   0.3729213036424241    0.6023880425906011    0.3632548082083387 O
   0.3834150720607311    0.6315841126027909    0.1221123267304269 O
   0.1230222797618735    0.6423849699183021    0.6340111955419649 O
   0.1778949602857827    0.8442526210586907    0.8095392210748477 O
   0.1289423033908300    0.6133179600510601    0.8920994594053766 O
   0.1753482077759901    0.9132791775219148    0.5596093007291522 O
   0.4352258337162923    0.9114023035317557    0.6935630292323044 O
   0.4358385460115274    0.8397373295075012    0.9330825583901279 O
   0.3714567359604561    0.6052155142611894    0.8665623567350393 O
   0.3782738652404955    0.6421800488158715    0.6125518434724623 O
   0.6258215978385885    0.1411059993689436    0.1296093621753129 O
   0.6893041775116584    0.3342968162663337    0.3025821615575185 O
   0.6221018700040086    0.1065444181134607    0.3786335368009953 O
   0.6787915515483495    0.4031302689990632    0.0552152363125814 O
   0.9230182049167794    0.4095617581516768    0.1858631824297352 O
   0.9347550683970912    0.3306869401915201    0.4349972592590857 O
   0.8627686627555072    0.1028360524784229    0.3631278522178785 O
   0.8663313120886807    0.1451729909861673    0.1186731458034437 O
   0.6249824014744574    0.1500802596379116    0.6355488789081856 O
   0.6766830718534712    0.3287026225266164    0.8180291660643433 O
   0.6268959292352936    0.0884854157524673    0.8894400156433109 O
   0.6846282170730681    0.4125734942890379    0.5603691418011842 O
   0.9371417747543455    0.4067202734462483    0.6847414827809828 O
   0.9385182877288770    0.3433607035018496    0.9364838420120228 O
   0.8932804938184836    0.1097275572282243    0.8686135486653337 O
   0.8760929852460292    0.1492881493502899    0.6045716173155362 O
   0.6250508493345492    0.6622126388655426    0.1269442338110141 O
   0.6602837447776633    0.8448024797330653    0.3276275466273963 O
   0.6186489995274046    0.5978244999149925    0.3744307250704758 O
   0.6895140929835553    0.9090999814331071    0.0664181550079534 O
   0.9327953241330778    0.9110250748385297    0.1893544721524591 O
   0.9307642053207160    0.8392221662005069    0.4460973815010925 O
   0.8695249557365932    0.6074333537112622    0.3715401077165149 O
   0.8609277164729087    0.6445072470842179    0.1203643132806539 O
   0.6228087429940893    0.6447928491007221    0.6300329253657431 O
   0.6975303386933918    0.8393393258209114    0.8178415743698161 O
   0.6215099958711129    0.6086135369460755    0.8756008652876038 O
   0.6795427093495261    0.9113924787139225    0.5687918190589688 O
   0.9234336041498827    0.9086732440169955    0.6908438972015359 O
   0.9406986711294490    0.8355511263596511    0.9434654740320596 O
   0.8659044775258634    0.6075829967866430    0.8745643738456261 O
   0.8774869968769262    0.6398746306468344    0.6251858593591392 O
   0.5047204514504743    0.0009457137791744    0.0160026049210887 Zr
   0.2423796145518278    0.0025599092107470    0.2313361652740996 Zr
   0.2556873718564592    0.2452141462696857    0.4831780049397058 Zr
   0.4953438710205284    0.2340752944656088    0.2625521799216525 Zr
   0.4987300422568378    0.0032887426032032    0.5201799914620492 Zr
   0.2525822459247458    0.0205910644501672    0.7358327419184030 Zr
   0.2453105300594245    0.2414701982436393    0.9891364703300995 Zr
   0.4991493064774895    0.2477894496596327    0.7673007736761472 Zr
   0.5009985807138491    0.5080050043428640    0.0119867216753646 Zr
   0.2503269079695623    0.5162502649680500    0.2293427667417790 Zr
   0.2546387986682681    0.7411710653308147    0.4939702115343228 Zr
   0.4918085358435255    0.7385967343545300    0.2681638241771107 Zr
   0.5020718215040422    0.5061211536681475    0.5110912689745194 Zr
   0.2503702994272858    0.5072393312200227    0.7272262627075489 Zr
   0.2587456221655473    0.7472261231284045    0.9764408713238982 Zr
   0.5049699960764498    0.7381375120505593    0.7678607064436822 Zr
   0.9940987662006285    0.0088876333476638    0.0161345823040500 Zr
   0.7413788743530718    0.0001113602999092    0.2404277300577691 Zr
   0.7428760931197526    0.2388998696480522    0.4831382127638886 Zr
   0.9914219057562408    0.2435590237426710    0.2667133046155793 Zr
   0.0018014488865631    0.0136415676342537    0.5087975342578174 Zr
   0.7542811460530364    0.0136784659659307    0.7249221062316987 Zr
   0.7495943653832241    0.2310869634796871    0.9822012625135236 Zr
   0.0029876774966945    0.2416850254499427    0.7650089338301741 Zr
   0.0040071335471309    0.5068857928642607    0.0177720303503767 Zr
   0.7424498745655173    0.5171527274016803    0.2262152911936899 Zr
   0.7503323680530188    0.7337188617090755    0.4830273631348097 Zr
   0.0047042339777575    0.7495169151301652    0.2706868376149790 Zr
   0.0029077726505736    0.5052640114415288    0.5138255599313045 Zr
   0.7565047279756129    0.5074511514164207    0.7370843005908944 Zr
   0.7473529682065001    0.7361847578413747    0.9849867148306851 Zr
   0.9945630102826601    0.7499187739152660    0.7767921550887181 Zr
