2,2,2,2,2,2,2,2,2,2,2,2,2,2,2,2,2,2,2,2,2,2,2,2,2,2,2,2,2,2,2,2,2,2,2,2,2,2,2,2,2,2,2,2,2,2,2,2,2,2,2,2,2,2,2,2,2,2,2,2,2,2,2,2,2,2,2,2,2,2,2,2,2,2,2,2,2,2,2,2,2,2,2,2,2,2,2,2,2,2,2,2,2,2,2,2
1.0
   9.7662177103635219   -0.0000000000000000    0.0000000000000000
  -0.4966123794182236    9.9557300405569915    0.0000000000000000
  -0.4606935902923844   -0.3782898489352983   10.8940679765213524
O Zr
64 32
direct
   0.1331065324107338    0.1300626844052292    0.1433273336337842 O
   0.1716272466320445    0.3474672019424326    0.3284195981896614 O
   0.1181086958308613    0.1091036909816455    0.3822239358221466 O
   0.1955602185566818    0.4034648198449664    0.0720574755446553 O
   0.4291227776912879    0.4024885167154447    0.1874174465498387 O
   0.4189361080039117    0.3494532285053926    0.4376283637182108 O
   0.3715038538211640    0.1193482073758152    0.3696070014872197 O
   0.3818161807856087    0.1399702846575145    0.1163872704331032 O
   0.1274061739530702    0.1532784806719488    0.6440153759936701 O
   0.2027836335979352    0.3469843741507921    0.8167597563257742 O
   0.1375498604728118    0.0999322810027960    0.8941154520875599 O
   0.1775958775121431    0.4140628897268399    0.5754265454016110 O
   0.4492029990396946    0.4195934647524924    0.6848967821552472 O
   0.4490617451558432    0.3350985864019546    0.9262612559557514 O
   0.3909165413608102    0.1016490015524182    0.8557729694814088 O
   0.3762856498338801    0.1448308780248696    0.6070228807321633 O
   0.1257085909948694    0.6502108997573801    0.1198915533678412 O
   0.1695018551293734    0.8443748799819132    0.3166079194689739 O
   0.1198923147206966    0.6080230296684517    0.3869569440805056 O
   0.1929754092537433    0.9149821820893647    0.0738534797592579 O
   0.4282882819777774    0.8993006348622004    0.1797248870963259 O
   0.4223129711995229    0.8452693656365220    0.4314117904284208 O
   0.3698545735631051    0.6023141259897533    0.3575385883303209 O
   0.3721771007450279    0.6261172329129782    0.1074925117250763 O
   0.1241076888266481    0.6506659236714785    0.6332022142203199 O
   0.1616035452641863    0.8501260403299518    0.8222402312621041 O
   0.1164252509607224    0.6055482406819181    0.8743582689155923 O
   0.1752123061990118    0.9191423380410403    0.5642391766094698 O
   0.4254259303096232    0.9019594290232674    0.6800425118850441 O
   0.4341520916199971    0.8283543310969068    0.9331845594602413 O
   0.3676558340037744    0.6040813624479160    0.8682032739913353 O
   0.3698752831435461    0.6479646617287699    0.6185854038935270 O
   0.6232870282407713    0.1342928932724106    0.1431056514939990 O
   0.6839924684120569    0.3502295474436388    0.3219870269269312 O
   0.6202861678410286    0.1106690827026675    0.3926079437284496 O
   0.6855777499936531    0.4077009437615768    0.0527657301054912 O
   0.9352308455728674    0.4153052412745336    0.1889929054635328 O
   0.9247467333202243    0.3357754878439498    0.4367492140634959 O
   0.8747591911583740    0.1089697167166865    0.3579393214182187 O
   0.8824602798832398    0.1479548785910768    0.1122804668316917 O
   0.6272237083695806    0.1340021688962324    0.6300332965603234 O
   0.6995098984956448    0.3377112121135203    0.8190599452867763 O
   0.6331903870815115    0.1154774656850079    0.8729448084770137 O
   0.6710001768621049    0.4013269459218527    0.5787290407483939 O
   0.9403700728167514    0.4082702191101731    0.6813214472588666 O
   0.9553769455923038    0.3507278968825415    0.9301643772499860 O
   0.8787341611791376    0.1012716916559931    0.8544135085498340 O
   0.8784091279529341    0.1366738845214012    0.6081862382426280 O
   0.6258893546464516    0.6454654556915074    0.1420663980833906 O
   0.6730929257998611    0.8415879076835150    0.3147833049959561 O
   0.6166676579621684    0.6063197172275181    0.3790862810293118 O
   0.6771009694312538    0.9123390432537277    0.0610012213098198 O
   0.9384614420718794    0.9185010912463794    0.1905427856677310 O
   0.9132189230460882    0.8444447988263281    0.4368155292362630 O
   0.8764711491644039    0.6060064446315815    0.3643415771733982 O
   0.8761088129160358    0.6437099337325667    0.1199739736448154 O
   0.6316460477543321    0.6430684936910718    0.6267402748004707 O
   0.6986960174034579    0.8310211434832552    0.8089288823782407 O
   0.6157696280241898    0.6110512527668172    0.8876989859382163 O
   0.6713387711440248    0.9113055162522448    0.5659444237806859 O
   0.9206433711394514    0.9044410052323106    0.6882485402018002 O
   0.9144118458795584    0.8449953838452782    0.9404820699835219 O
   0.8688270925295669    0.6029287435967856    0.8693126320131548 O
   0.8730344192623064    0.6477252720997360    0.6167683682973970 O
   0.5038707938851534    0.0062942167445703    0.0190866248354727 Zr
   0.2470881264402377    0.0124436474094387    0.2413979930607830 Zr
   0.2445005098977727    0.2476691121687450    0.4913408074776123 Zr
   0.5013608766352765    0.2426951695648748    0.2634458915976431 Zr
   0.4934340354803728    0.0053364625729084    0.5132958647817778 Zr
   0.2490261310028646    0.0177429248556045    0.7347477884341170 Zr
   0.2677112700387254    0.2401769853821492    0.9734198664222200 Zr
   0.5095030249641757    0.2383623992212046    0.7488606034845968 Zr
   0.4970335499058923    0.4999656071396312    0.0237050025809056 Zr
   0.2478782915616257    0.5117045384563937    0.2329465986139678 Zr
   0.2280064354042131    0.7485597275372926    0.4809350103002573 Zr
   0.4956975587882172    0.7370592016519221    0.2691849956894063 Zr
   0.4945913480690317    0.5163553412012217    0.5181870820768084 Zr
   0.2524530611257060    0.5208179962250007    0.7360380921232710 Zr
   0.2477420934261473    0.7436920218267805    0.9759872107659746 Zr
   0.5034784562699742    0.7404538992620670    0.7658192865769151 Zr
   0.0170048173693947    0.0083471994221927    0.0262574733897833 Zr
   0.7581624556850300    0.0103224360074243    0.2373139260900345 Zr
   0.7539020782573429    0.2354947016367387    0.4894688250240466 Zr
   0.0009545937066685    0.2456496161993144    0.2659848151622483 Zr
   0.9973065522743169    0.9997496511989634    0.5133148119739970 Zr
   0.7444654253986044    0.9979511452911817    0.7252637720939701 Zr
   0.7488829947932603    0.2389760944040621    0.9748219585362878 Zr
   0.0039096138232480    0.2351626462706734    0.7710326061213132 Zr
   0.9998407830706386    0.5216141502751724    0.0179003412150792 Zr
   0.7483417659170226    0.5015309563617679    0.2276897005366449 Zr
   0.7433510261630636    0.7485932213459638    0.4859446475466578 Zr
   0.9951452599505679    0.7391831736333433    0.2633539977245594 Zr
   0.9951931126637705    0.5013890322909887    0.5161682589019025 Zr
   0.7606079108017562    0.4992305342673269    0.7315845549317863 Zr
   0.7461519224947474    0.7352286467411768    0.9852050190829799 Zr
   0.9861217457252237    0.7476001315886428    0.7797757873007659 Zr
