1,1,1,1,1,1,1,1,1,1,1,1,1,1,1,1,1,1,1,1,1,1,1,1,1,1,1,1,1,1,1,1,1,1,1,1,1,1,1,1,1,1,1,1,1,1,1,1,1,1,1,1,1,1,1,1,1,1,1,1,1,1,1,1,1,1,1,1,1,1,1,1,1,1,1,1,1,1,1,1,1,1,1,1,1,1,1,1,1,1,1,1,1,1,1,1
1.0
  10.8440712840204494    0.0000000000000000   -0.0000000000000000
   0.3036025057251334   10.1756715642064606   -0.0000000000000000
  -0.4045590628886580   -0.2043936195442713   10.6765541864171869
O Zr
64 32
direct
   0.1071223443560041    0.1354147923595243    0.0716691965159948 O
   0.3792794043769769    0.1233447411120829    0.1257456259443688 O
   0.3762208953479519    0.3872889225941964    0.0739766515590593 O
   0.0966209230722092    0.3850074350232561    0.1078591828031024 O
   0.1248282324048345    0.3976952898388686    0.3675104169088399 O
   0.4073608648374220    0.1058052214622994    0.3622866249132020 O
   0.3663141100006373    0.8751087196839723    0.5871376143976285 O
   0.1977948384192627    0.1433470851246527    0.3067511395639750 O
   0.9134935801312910    0.0792527295013160    0.6354119167802924 O
   0.1485698134615867    0.1113290337016491    0.5834570456472734 O
   0.3942744885870720    0.3651938643247283    0.5496621380956375 O
   0.1380900343682357    0.3390773624436092    0.6226308148332238 O
   0.1474753096041199    0.3467284020412786    0.8504542839534839 O
   0.3594992027013327    0.6147302563461822    0.9060915921550112 O
   0.4133987506709080    0.3681684741104010    0.8216234734573781 O
   0.1120040413038024    0.1216696163121765    0.8426242008910710 O
   0.1513632771345389    0.6879409329055471    0.3322292695439703 O
   0.3711707325152755    0.6155053710177371    0.4068850293221612 O
   0.4030410068502155    0.8745891163696617    0.3328495481361424 O
   0.1856685365378954    0.9155634127706981    0.4319035552843881 O
   0.1026563300549779    0.8931775673288412    0.6526778945088109 O
   0.3886522854074125    0.6101625142046142    0.6562659819601663 O
   0.3664676074898671    0.3760244948278441    0.3194808630053552 O
   0.1540289851376958    0.6211151799820640    0.5840175383488992 O
   0.1319320200691179    0.6131809804208695    0.8526616910521135 O
   0.3631221248770253    0.8851375403080195    0.0572740624196843 O
   0.4075372439512057    0.9067940343016387    0.8217692015521203 O
   0.1347407381565494    0.8678113917030277    0.9008556561475757 O
   0.1178741286330967    0.8961874529390853    0.1615527023029902 O
   0.3981843843278256    0.1310720527511972    0.9097460045823501 O
   0.1057208455167680    0.6078324032030759    0.0930247158360829 O
   0.8606694680151296    0.6008334896046328    0.8854841437631035 O
   0.6325817286646764    0.1145353198206577    0.0611708879378773 O
   0.8630176936241737    0.1310644255530653    0.1742282447895511 O
   0.8542740569712767    0.3725054933167039    0.0622818778877143 O
   0.6053478413112512    0.3810365216313031    0.1179706579958516 O
   0.6378750086412316    0.4115605943670288    0.3805362673350877 O
   0.8771509037055994    0.3862802247835483    0.3017179150833307 O
   0.9138453849384932    0.1379918341101978    0.4152176875044407 O
   0.6520005915245078    0.1977481217834601    0.3014516810484194 O
   0.4103726572510804    0.1135113676068266    0.6164532510941751 O
   0.6534335525843616    0.1760544451648475    0.5668300295987957 O
   0.8905833643753500    0.3624042142525037    0.5643395736861729 O
   0.6524839656184769    0.3998452081256186    0.6332353367813295 O
   0.6665828532791641    0.3843114526016523    0.8792365184304974 O
   0.8869089585634324    0.3436708464056023    0.8104407098694881 O
   0.8713694826339217    0.1118781924265677    0.8912936506336732 O
   0.6240745353552953    0.1386811427262668    0.8011925802598792 O
   0.6114086087536192    0.6177716041752644    0.0976724147503196 O
   0.8531967143280887    0.6531456256150964    0.1513330520118119 O
   0.8652086081350999    0.8807356898628607    0.0890065436476648 O
   0.6039978260999928    0.8855694307586431    0.1204854019227038 O
   0.6319887135122669    0.8804286948793361    0.3998144138612255 O
   0.8770679578629278    0.8971284593001694    0.3541669539513586 O
   0.9123895422666397    0.6680205813408749    0.4326275250282811 O
   0.6847089049608076    0.6399286334739122    0.3104046178322373 O
   0.6056834383141888    0.6561764860369632    0.5735045635407167 O
   0.9158017629172192    0.6171995638346078    0.6561417394117899 O
   0.8818444947266014    0.8520697948474771    0.6084241931131781 O
   0.6111874198240442    0.9026171863955816    0.6403769479761664 O
   0.6417010051435419    0.8822020199431311    0.8798222333054293 O
   0.8775036619213811    0.8596693508121924    0.8450548709131476 O
   0.6279281804743614    0.6297510823684489    0.8272872522238390 O
   0.3576095627677577    0.6682455838768674    0.1551472048544778 O
   0.0106413145064544    0.9901098035339977    0.9837721442150682 Zr
   0.0380607717521690    0.2351853020639704    0.2224324855786579 Zr
   0.2704163134138467    0.9761329511393194    0.2275609938167990 Zr
   0.2503024215380060    0.2469798205420374    0.9704697840602645 Zr
   0.9881267303366394    0.9745121701680469    0.4930626507658415 Zr
   0.0176722051667724    0.2321782766629433    0.7160070309037901 Zr
   0.2813727927996098    0.0070665295259202    0.7141872979205850 Zr
   0.2390971046129060    0.2435342308749716    0.4768802922648373 Zr
   0.0000487862639296    0.4896469614453427    0.9819318598445740 Zr
   0.9933799674913185    0.7595098536719365    0.2349940612198532 Zr
   0.2619205609124967    0.5304668069586089    0.2546019642890223 Zr
   0.2385965693121724    0.7345040634644427    0.0070870039507936 Zr
   0.0054003190223698    0.5060340104879207    0.5110423225352420 Zr
   0.9983471844741365    0.7771239292479443    0.7386509361169129 Zr
   0.2525076370649151    0.4885944072156744    0.7597320008378076 Zr
   0.2503319769636461    0.7480776274106076    0.5077354155797266 Zr
   0.5013308854634183    0.9996819452818740    0.9814087333186854 Zr
   0.4771564605498213    0.2516676911646980    0.2250471840396571 Zr
   0.7469631021402827    0.9995866052215662    0.2455229166480410 Zr
   0.7404685374381197    0.2500335625841446    0.9978405110661529 Zr
   0.5076443040480654    0.9989573608448985    0.4772165878839396 Zr
   0.5445952500386465    0.2566387217476043    0.6803335386468458 Zr
   0.7564799466557512    0.0094287891971169    0.7606306574766888 Zr
   0.7766643901777003    0.2802372927180385    0.4453581826287378 Zr
   0.4977937693392334    0.4768580461705250    0.9496932536997289 Zr
   0.5344491611441947    0.7455015390640237    0.2439610103148895 Zr
   0.7420835980133694    0.4889872082538365    0.2135673593265555 Zr
   0.7373413835637304    0.7519303191219048    0.9797085721165728 Zr
   0.5228739247993048    0.4954312427224506    0.4915147567439084 Zr
   0.5195217683864557    0.7441419898440406    0.7284920058659911 Zr
   0.7955970187386509    0.4913707096843688    0.7562093042033590 Zr
   0.7525052196654064    0.7574905512588135    0.5090572442103493 Zr
